 vasp.6.4.3 19Mar24 (build Oct  2 2024 09:01:45) complex
 executed on             LinuxGNU date 2025.02.24  13:04:26

 INCAR:
   ENCUT = 400.000000
   SIGMA = 0.100000
   EDIFF = 1.00e-04
   EDIFFG = -3.00e-02
   ALGO = Fast
   GGA = PE
   PREC = Accurate
   IBRION = -1
   ICHARG = 2
   IDIPOL = 3
   ISMEAR = 1
   ISYM = 0
   NPAR = 2
   LCHARG = .FALSE.
   LDIPOL = .TRUE.
   LWAVE = .FALSE.
   LREAL = Auto

 POTCAR:    PAW_PBE Pd 04Jan2005
 POTCAR:    PAW_PBE H 15Jun2001
 POTCAR:    PAW_PBE S 06Sep2000
 POTCAR:    PAW_PBE Pd 04Jan2005
   VRHFIN =Pd : s1 d9

   TITEL  = PAW_PBE Pd 04Jan2005
   POMASS =  106.420; ZVAL   =   10.000    mass and valenz
   ENMAX  =  250.925; ENMIN  =  188.194 eV

   TITEL  = PAW_PBE H 15Jun2001
   POMASS =    1.000; ZVAL   =    1.000    mass and valenz
   ENMAX  =  250.000; ENMIN  =  200.000 eV

   TITEL  = PAW_PBE S 06Sep2000
   POMASS =   32.066; ZVAL   =    6.000    mass and valenz
   ENMAX  =  258.689; ENMIN  =  194.016 eV

 Optimization of the real space projectors (new method)

 maximal supplied QI-value         = 14.36
 optimisation between [QCUT,QGAM] = [ 10.20, 20.39] = [ 29.12,116.47] Ry
 Optimized for a Real-space Cutoff    1.55 Angstroem

   l    n(q)    QCUT    max X(q) W(low)/X(q) W(high)/X(q)  e(spline)
   2      9    10.197    59.108    0.12E-03    0.40E-04    0.11E-06
   2      9    10.197    58.101    0.12E-03    0.39E-04    0.12E-06
   0      9    10.197   102.235    0.41E-04    0.86E-05    0.83E-07
   0      9    10.197    58.388    0.37E-04    0.79E-05    0.78E-07
   1      9    10.197    22.191    0.25E-03    0.13E-03    0.84E-07
   1      9    10.197    15.590    0.21E-03    0.11E-03    0.74E-07
 Optimization of the real space projectors (new method)

[...]

   l    n(q)    QCUT    max X(q) W(low)/X(q) W(high)/X(q)  e(spline)
   0      8     9.919    19.460    0.16E-03    0.20E-03    0.36E-06
   0      8     9.919    12.209    0.16E-03    0.20E-03    0.35E-06
   1      8     9.919     4.655    0.19E-03    0.46E-03    0.40E-06
 Optimization of the real space projectors (new method)

 maximal supplied QI-value         = 19.84
 optimisation between [QCUT,QGAM] = [ 10.12, 20.44] = [ 28.68,116.96] Ry
 Optimized for a Real-space Cutoff    1.42 Angstroem

   l    n(q)    QCUT    max X(q) W(low)/X(q) W(high)/X(q)  e(spline)
   0      9    10.119   187.594    0.52E-04    0.93E-04    0.64E-07
   0      9    10.119   164.243    0.51E-04    0.92E-04    0.63E-07
   1      8    10.119    67.533    0.16E-03    0.17E-03    0.23E-06
   1      8    10.119    50.729    0.16E-03    0.16E-03    0.23E-06
  PAW_PBE Pd 04Jan2005                  :
  PAW_PBE H 15Jun2001                   :
  PAW_PBE S 06Sep2000                   :

 POSCAR: Pd H  S
  positions in cartesian coordinates

 exchange-correlation table for PE
   RHO(1)=    0.500       N(1)  =     2000
   RHO(2)=  100.500       N(2)  =     4000

 ion  position               nearest neighbor table
   1  0.167  0.167  0.000-   3 2.79   7 2.79   4 2.79   2 2.79  10 2.79  11 2.79  13 2.79  14 2.79

   2  0.500  0.167  0.000-   8 2.79   3 2.79   5 2.79   1 2.79  11 2.79  12 2.79  14 2.79  15 2.79

[...]

  10  0.000  0.000  0.099-  19 2.75  21 2.76  27 2.77  16 2.79  11 2.79  12 2.79  13 2.79   9 2.79
                             1 2.79   3 2.79   7 2.79  25 2.83
  11  0.333  0.000  0.099-  19 2.76  20 2.77  12 2.79  17 2.79  10 2.79  14 2.79   2 2.79   8 2.79
                             7 2.79   1 2.79  25 2.80  26 2.82
  12  0.667  0.000  0.099-  20 2.74  21 2.77  27 2.77  11 2.79  10 2.79  15 2.79  18 2.79   8 2.79
                             2 2.79   9 2.79   3 2.79  26 2.82
  13  0.000  0.333  0.099-  24 2.76  21 2.77  19 2.78  16 2.79  14 2.79  15 2.79  10 2.79   6 2.79
                             4 2.79   3 2.79   1 2.79  22 2.79
  14  0.333  0.333  0.099-  22 2.78  23 2.79  15 2.79  17 2.79  11 2.79  13 2.79   5 2.79   4 2.79
                             2 2.79   1 2.79  19 2.79  20 2.80
  15  0.667  0.333  0.099-  24 2.77  20 2.77  21 2.78  18 2.79  14 2.79  13 2.79  12 2.79   5 2.79
                             6 2.79   2 2.79   3 2.79  23 2.80
  16  0.000  0.667  0.099-  27 2.76  25 2.77  24 2.78  13 2.79  10 2.79  17 2.79  18 2.79   6 2.79
                             4 2.79   9 2.79   7 2.79  22 2.81
  17  0.333  0.667  0.099-  25 2.74  26 2.76  14 2.79  18 2.79  16 2.79  11 2.79   5 2.79   4 2.79
                             8 2.79   7 2.79  22 2.80  23 2.81
  18  0.667  0.667  0.099-  27 2.77  26 2.77  15 2.79  17 2.79  16 2.79  12 2.79   5 2.79   6 2.79
                             8 2.79   9 2.79  24 2.79  23 2.82
  19  0.165  0.163  0.197-  32 2.68  10 2.75  11 2.76  21 2.77  13 2.78  28 2.78  14 2.79  22 2.80
                            25 2.81  29 2.82  20 2.83  31 2.85
  20  0.504  0.163  0.197-  12 2.74  21 2.76  32 2.77  11 2.77  15 2.77  30 2.77  23 2.80  14 2.80
                            26 2.81  29 2.82  19 2.83  33 2.90
  21  0.834  0.166  0.197-  20 2.76  10 2.76  19 2.77  13 2.77  12 2.77  24 2.77  30 2.78  31 2.78
                            15 2.78  27 2.79  28 2.81  33 2.88
  22  0.168  0.498  0.199-  25 2.75  32 2.75  34 2.75  23 2.76  14 2.78  13 2.79  24 2.79  17 2.80
                            19 2.80  16 2.81  35 2.83  31 2.84
  23  0.498  0.497  0.199-  26 2.75  36 2.76  22 2.76  14 2.79  20 2.80  15 2.80  17 2.81  24 2.81
                            32 2.81  18 2.82  35 2.83  33 2.89
  24  0.834  0.498  0.197-  36 2.76  13 2.76  15 2.77  34 2.77  21 2.77  16 2.78  18 2.79  22 2.79
                            31 2.79  27 2.80  23 2.81  33 2.89
  25  0.169  0.826  0.198-  29 2.73  17 2.74  22 2.75  26 2.75  34 2.76  16 2.77  28 2.78  27 2.80
                            11 2.80  19 2.81  10 2.83  35 2.90
  26  0.499  0.827  0.198-  29 2.72  36 2.74  23 2.75  25 2.75  17 2.76  18 2.77  30 2.79  27 2.80
                            20 2.81  11 2.82  12 2.82  35 2.91
  27  0.834  0.832  0.196-  16 2.76  18 2.77  10 2.77  30 2.77  28 2.77  12 2.77  36 2.77  34 2.79
                            21 2.79  24 2.80  25 2.80  26 2.80
  28  0.001  0.994  0.296-  34 2.76  30 2.77  27 2.77  19 2.78  25 2.78  29 2.79  31 2.81  21 2.81

[...]

  32  0.325  0.318  0.294-  39 2.23  19 2.68  22 2.75  29 2.76  20 2.77  31 2.78  23 2.81  35 2.81
                            33 2.89
  33  0.670  0.330  0.304-  37 1.63  31 2.70  30 2.78  36 2.80  21 2.88  24 2.89  32 2.89  23 2.89
                            20 2.90
  34  0.000  0.664  0.295-  22 2.75  25 2.76  28 2.76  24 2.77  36 2.77  35 2.78  27 2.79  31 2.79

  35  0.333  0.654  0.304-  34 2.78  29 2.80  32 2.81  36 2.82  23 2.83  22 2.83  39 2.90  25 2.90
                            26 2.91
  36  0.669  0.665  0.295-  26 2.74  23 2.76  24 2.76  34 2.77  27 2.77  30 2.78  33 2.80  35 2.82

  37  0.791  0.353  0.368-  33 1.63
  38  0.489  0.501  0.402-  39 1.36
  39  0.366  0.394  0.400-  38 1.36  32 2.23  35 2.90

IMPORTANT INFORMATION: All symmetrisations will be switched off!
NOSYMM: (Re-)initialisation of all symmetry stuff for point group C_1.

                                     Primitive cell

  volume of cell :    1390.8369

  direct lattice vectors                    reciprocal lattice vectors
     8.358002154  0.000000000  0.000000000     0.119645817  0.000000000  0.000000000
     0.000000000  8.358002154  0.000000000     0.000000000  0.119645817  0.000000000
     0.000000000  0.000000000 19.910000000     0.000000000  0.000000000  0.050226017

  length of vectors
     8.358002154  8.358002154 19.910000000     0.119645817  0.119645817  0.050226017

  position of ions in fractional coordinates (direct lattice)
     0.166666667  0.166666667  0.000000000
     0.500000000  0.166666667  0.000000000
     0.833333333  0.166666667  0.000000000
     0.166666667  0.500000000  0.000000000
     0.500000000  0.500000000  0.000000000
     0.833333333  0.500000000  0.000000000
     0.166666667  0.833333333  0.000000000
     0.500000000  0.833333333  0.000000000
     0.833333333  0.833333333  0.000000000
     0.000000000  0.000000000  0.098945254
     0.333333333  0.000000000  0.098945254
     0.666666667  0.000000000  0.098945254
     0.000000000  0.333333333  0.098945254
     0.333333333  0.333333333  0.098945254
     0.666666667  0.333333333  0.098945254
     0.000000000  0.666666667  0.098945254
     0.333333333  0.666666667  0.098945254
     0.666666667  0.666666667  0.098945254
     0.165183712  0.162762853  0.196876546
     0.503583137  0.162814222  0.196601104
     0.834320075  0.165842108  0.196934410
     0.168176810  0.497663234  0.198585828
     0.498302715  0.497479682  0.199064509
     0.834088028  0.497730391  0.197074625
     0.169468452  0.826253871  0.197832417
     0.499036429  0.826566101  0.198251943
     0.834360561  0.832277570  0.196417534
     0.001204429  0.994102271  0.295778467
     0.334482899  0.987669076  0.294780966
     0.669510589  0.997370949  0.295110363
     0.993034479  0.329663200  0.298365197
     0.325150582  0.317923164  0.293741910
     0.670124222  0.329692283  0.303693387
     0.000380418  0.663840050  0.295119909
     0.332645412  0.653618434  0.304142033
     0.668992403  0.664540767  0.294636441
     0.790646822  0.352518325  0.367596663
     0.488828748  0.501438093  0.401874913
     0.366270688  0.393890937  0.399687510

  ion indices of the primitive-cell ions
   primitive index   ion index
                 1           1
                 2           2
                 3           3
                 4           4
                 5           5
                 6           6
                 7           7
                 8           8
                 9           9
                10          10
                11          11
                12          12
                13          13
                14          14
                15          15
                16          16
                17          17
                18          18
                19          19
                20          20
                21          21
                22          22
                23          23
                24          24
                25          25
                26          26
                27          27
                28          28
                29          29
                30          30
                31          31
                32          32
                33          33
                34          34
                35          35
                36          36
                37          37
                38          38
                39          39

 KPOINTS: KPOINTS created by Atomic Simulation Env

Automatic generation of k-mesh.
 Grid dimensions read from file:
 generate k-points for:    2    2    1

 Generating k-lattice:

  Cartesian coordinates                     Fractional coordinates (reciprocal lattice)
     0.059822909  0.000000000  0.000000000     0.500000000  0.000000000  0.000000000
     0.000000000  0.059822909  0.000000000     0.000000000  0.500000000  0.000000000
     0.000000000  0.000000000  0.050226017     0.000000000  0.000000000  1.000000000

  Length of vectors
     0.059822909  0.059822909  0.050226017

[...]
      21 -79.5730      22 -79.5594      23 -79.4670      24 -79.5552      25 -79.5955
      26 -79.5873      27 -79.6156      28 -79.0697      29 -79.1019      30 -79.0734
      31 -79.1619      32 -79.8123      33 -79.5115      34 -79.0923      35 -79.0791
      36 -79.0853      37 -35.7139      38 -37.5753      39 -91.1811

 E-fermi :   0.6131     XC(G=0):  -6.3668     alpha+bet : -6.5603

 val. band max:        0.6103920311   @ k =  -0.2500   0.2500   0.0000
 cond. band min:       0.6208785482   @ k =  -0.2500   0.2500   0.0000
 fundamental gap:      0.0104865171
 Fermi energy:         0.6131073261

 k-point     1 :       0.2500    0.2500    0.0000
  band No.  band energies     occupation
      1     -12.6319      2.00000
      2      -5.3967      2.00000
      3      -5.2310      2.00000
      4      -4.4711      2.00000
      5      -4.3587      2.00000
      6      -4.2653      2.00000
      7      -4.0548      2.00000
      8      -3.9429      2.00000
      9      -3.9101      2.00000
     10      -3.9017      2.00000
     11      -3.8802      2.00000
     12      -3.8675      2.00000
     13      -3.8510      2.00000
     14      -3.7891      2.00000
     15      -3.7589      2.00000
     16      -3.7249      2.00000
     17      -3.7068      2.00000
     18      -3.7028      2.00000
     19      -3.6451      2.00000
     20      -3.6091      2.00000
     21      -3.5440      2.00000
     22      -3.4836      2.00000
     23      -3.4711      2.00000
     24      -3.4545      2.00000
     25      -3.4207      2.00000
     26      -3.3808      2.00000
     27      -3.3363      2.00000
     28      -3.3182      2.00000
     29      -3.3043      2.00000
     30      -3.2892      2.00000
     31      -3.2640      2.00000
     32      -3.2255      2.00000
     33      -3.2016      2.00000
     34      -3.1708      2.00000
     35      -3.1395      2.00000
     36      -3.0882      2.00000
     37      -3.0671      2.00000
     38      -3.0329      2.00000
     39      -3.0143      2.00000
     40      -2.9925      2.00000
     41      -2.9793      2.00000
     42      -2.9609      2.00000
     43      -2.9469      2.00000
     44      -2.9188      2.00000
     45      -2.8775      2.00000
     46      -2.8354      2.00000
     47      -2.7949      2.00000
     48      -2.7132      2.00000
     49      -2.6869      2.00000
     50      -2.6757      2.00000
     51      -2.6362      2.00000
     52      -2.6018      2.00000
     53      -2.5744      2.00000
     54      -2.5363      2.00000
     55      -2.5264      2.00000
     56      -2.5098      2.00000
     57      -2.4794      2.00000
     58      -2.4472      2.00000
     59      -2.4071      2.00000
     60      -2.3881      2.00000
[...]
    206       3.3932      0.00000
    207       3.4724      0.00000
    208       3.5694      0.00000
    209       3.7826      0.00000
    210       4.1272      0.00000
    211       4.2653      0.00000
    212       4.6048      0.00000
    213       4.7515      0.00000
    214       4.8501      0.00000
    215       5.1539      0.00000
    216       5.2411      0.00000
    217       5.4859      0.00000
    218       5.7395      0.00000
    219       5.8650      0.00000
    220       5.9130      0.00000

 k-point     2 :      -0.2500    0.2500    0.0000
  band No.  band energies     occupation
      1     -12.6319      2.00000
      2      -5.3779      2.00000
      3      -5.2565      2.00000
      4      -4.4594      2.00000
      5      -4.3513      2.00000
      6      -4.2737      2.00000
      7      -4.0550      2.00000
      8      -3.9536      2.00000
      9      -3.9181      2.00000
     10      -3.8962      2.00000
     11      -3.8775      2.00000
     12      -3.8687      2.00000
     13      -3.8445      2.00000
     14      -3.7936      2.00000
     15      -3.7617      2.00000
     16      -3.7239      2.00000
     17      -3.7049      2.00000
     18      -3.6963      2.00000
     19      -3.6594      2.00000
     20      -3.5968      2.00000
     21      -3.5145      2.00000
     22      -3.5074      2.00000
     23      -3.4733      2.00000
     24      -3.4570      2.00000
     25      -3.4401      2.00000
     26      -3.3760      2.00000
     27      -3.3348      2.00000
     28      -3.3150      2.00000
     29      -3.3070      2.00000
     30      -3.2732      2.00000
     31      -3.2648      2.00000
     32      -3.2394      2.00000
     33      -3.1809      2.00000
     34      -3.1668      2.00000
     35      -3.1259      2.00000
     36      -3.0908      2.00000
     37      -3.0790      2.00000
     38      -3.0338      2.00000
     39      -3.0056      2.00000
     40      -2.9959      2.00000
     41      -2.9736      2.00000
     42      -2.9601      2.00000
     43      -2.9521      2.00000
     44      -2.9187      2.00000
     45      -2.8869      2.00000
     46      -2.8440      2.00000
     47      -2.7944      2.00000
     48      -2.7186      2.00000
     49      -2.6878      2.00000
     50      -2.6771      2.00000
     51      -2.6219      2.00000
     52      -2.6067      2.00000
     53      -2.5665      2.00000
     54      -2.5454      2.00000
     55      -2.5289      2.00000
     56      -2.5109      2.00000
     57      -2.4788      2.00000
     58      -2.4591      2.00000
     59      -2.4041      2.00000
     60      -2.3655      2.00000
[...]
    206       3.3696      0.00000
    207       3.5301      0.00000
    208       3.5880      0.00000
    209       3.7678      0.00000
    210       4.1290      0.00000
    211       4.3045      0.00000
    212       4.6016      0.00000
    213       4.7094      0.00000
    214       4.8676      0.00000
    215       5.1334      0.00000
    216       5.2626      0.00000
    217       5.5427      0.00000
    218       5.5755      0.00000
    219       5.8158      0.00000
    220       5.9310      0.00000

 soft charge-density along one line, spin component           1
         0         1         2         3         4         5         6         7         8         9
 total charge-density along one line

------------------------ aborting loop because EDIFF is reached ----------------------------------------

  FORCE on cell =-STRESS in cart. coord.  units (eV):
  Direction    XX          YY          ZZ          XY          YZ          ZX
  Alpha Z   628.75265   628.75265   628.75265
  Ewald   94941.34122 94871.91588************    24.64165    69.07608    36.68870
  Hartree102854.04480102807.22878-99627.83063     1.56212    20.99056     9.10704
  E(xc)   -1906.94215 -1907.23589 -1915.29817     0.08762     0.28550     0.18409
  Local  ************************207889.59460   -19.60800   -81.54173   -39.61655
  n-local  -126.07252  -127.95845  -132.33811     1.58620     5.17941     3.20631
  augment  2645.21272  2647.19311  2677.65729     0.17560    -3.98084    -2.54875
  Kinetic  4984.26258  4988.81706  5051.84581    -7.97470    -7.31785    -6.18060
  Fock        0.00000     0.00000     0.00000     0.00000     0.00000     0.00000
  Total     -22.75574   -23.31316    -5.45373     0.47049     2.69111     0.84025
  in kB     -26.21352   -26.85565    -6.28243     0.54198     3.10003     0.96793

 VOLUME and BASIS-vectors are now :
  energy-cutoff  :      400.00
  volume of cell :     1390.84
      direct lattice vectors                 reciprocal lattice vectors
     8.358002154  0.000000000  0.000000000     0.119645817  0.000000000  0.000000000
     0.000000000  8.358002154  0.000000000     0.000000000  0.119645817  0.000000000
     0.000000000  0.000000000 19.910000000     0.000000000  0.000000000  0.050226017

  length of vectors
     8.358002154  8.358002154 19.910000000     0.119645817  0.119645817  0.050226017

 FORCES acting on ions
    electron-ion (+dipol)            ewald-force                    non-local-force                 convergence-correction
   -.451E+00 0.224E+00 0.209E+04   0.539E+00 -.229E-01 -.209E+04   -.405E-01 -.488E-01 -.304E+01   -.545E-01 -.141E+00 -.183E+00
   0.218E+00 0.124E+00 0.209E+04   -.273E+00 0.128E+00 -.209E+04   0.494E-01 -.366E-01 -.307E+01   0.896E-02 -.212E+00 -.213E+00
   0.292E+00 0.713E-01 0.209E+04   -.285E+00 0.128E+00 -.209E+04   -.586E-01 -.188E-02 -.312E+01   0.455E-01 -.167E+00 -.203E+00
   -.309E+00 -.178E+00 0.209E+04   0.460E+00 0.136E+00 -.209E+04   -.280E-01 0.341E-01 -.308E+01   -.129E+00 0.137E-02 -.257E+00
   -.777E-02 -.138E+00 0.209E+04   -.641E-02 0.151E+00 -.209E+04   -.154E-02 0.815E-02 -.305E+01   0.824E-02 -.272E-02 -.329E+00
   0.298E+00 -.180E+00 0.209E+04   -.461E+00 0.163E+00 -.209E+04   0.394E-01 -.164E-01 -.305E+01   0.120E+00 0.279E-01 -.278E+00
   -.342E+00 -.619E-01 0.209E+04   0.467E+00 -.365E-01 -.209E+04   -.217E-01 -.644E-01 -.313E+01   -.866E-01 0.139E+00 -.150E+00
   0.112E+00 -.512E-01 0.209E+04   -.179E+00 -.204E+00 -.209E+04   0.240E-01 0.326E-01 -.308E+01   0.370E-01 0.215E+00 -.178E+00
   0.197E+00 0.101E+00 0.209E+04   -.304E+00 -.254E+00 -.209E+04   0.385E-01 0.113E-01 -.317E+01   0.492E-01 0.140E+00 -.143E+00
   -.314E+01 0.352E+01 0.747E+03   0.304E+01 -.352E+01 -.747E+03   0.119E+00 -.646E-01 -.192E-01   0.271E-01 -.345E-01 -.108E+00
   -.117E+01 0.286E+01 0.743E+03   0.114E+01 -.294E+01 -.743E+03   0.383E-01 -.365E-01 0.986E-01   -.298E-01 -.884E-02 -.759E-02
   0.306E+01 0.402E+01 0.746E+03   -.299E+01 -.394E+01 -.746E+03   -.861E-01 -.142E+00 -.601E-01   0.208E-02 -.174E-01 -.996E-01
   -.201E+01 -.185E+01 0.748E+03   0.195E+01 0.196E+01 -.748E+03   0.797E-01 0.151E-01 -.776E-01   0.315E-01 -.136E+00 -.883E-01
   -.198E+01 -.253E+00 0.746E+03   0.209E+01 0.471E+00 -.746E+03   0.949E-02 -.207E-01 -.424E-01   -.945E-01 -.224E+00 0.108E-01
   0.315E+01 -.347E+01 0.744E+03   -.323E+01 0.367E+01 -.744E+03   -.230E-01 0.552E-01 -.110E+00   0.630E-01 -.218E+00 -.265E-01
   -.172E+01 0.177E+01 0.748E+03   0.173E+01 -.186E+01 -.748E+03   0.259E-01 -.123E+00 -.564E-01   0.260E-01 0.170E+00 -.661E-01
   -.229E+01 0.250E+01 0.748E+03   0.235E+01 -.260E+01 -.748E+03   0.725E-01 -.241E+00 -.109E+00   -.112E+00 0.234E+00 0.597E-01
   0.328E+01 0.294E+01 0.745E+03   -.335E+01 -.314E+01 -.745E+03   -.693E-01 -.110E+00 0.194E-01   0.862E-01 0.236E+00 -.274E-01
   0.359E+01 0.107E+02 -.632E+03   -.343E+01 -.103E+02 0.632E+03   -.224E+00 -.312E+00 -.195E+00   0.776E-01 -.134E+00 0.859E-01
   -.420E+01 0.343E+00 -.637E+03   0.425E+01 -.931E-02 0.636E+03   -.397E-01 -.103E+00 0.258E+00   -.521E-01 -.147E+00 0.184E+00
   0.511E+01 -.610E+00 -.645E+03   -.511E+01 0.682E+00 0.645E+03   -.759E-01 0.107E+00 0.309E+00   -.232E-01 -.128E+00 0.674E-01
   0.636E+01 -.368E+01 -.646E+03   -.639E+01 0.348E+01 0.646E+03   -.147E+00 0.363E-01 0.106E+00   0.375E-01 0.945E-01 0.274E+00
   -.117E+02 0.426E+01 -.655E+03   0.118E+02 -.435E+01 0.654E+03   0.137E+00 -.774E-01 0.285E+00   -.451E-01 0.679E-01 0.430E+00
   0.778E+01 0.322E+01 -.638E+03   -.778E+01 -.324E+01 0.637E+03   -.130E+00 -.134E+00 0.287E+00   0.114E-01 0.872E-01 0.247E+00
   0.192E+00 -.665E+01 -.654E+03   -.124E+00 0.651E+01 0.654E+03   -.165E+00 0.173E+00 -.137E+00   0.520E-01 0.465E-01 0.144E+00
   -.198E+00 -.546E+01 -.658E+03   0.186E+00 0.530E+01 0.658E+03   0.111E+00 0.169E+00 -.215E+00   -.594E-01 0.764E-01 0.252E+00
   0.614E+00 -.327E+01 -.638E+03   -.629E+00 0.322E+01 0.637E+03   0.179E-01 0.138E-01 -.138E-02   0.567E-02 0.410E-01 0.137E+00
   0.285E+01 0.778E+01 -.202E+04   -.288E+01 -.791E+01 0.202E+04   0.170E-01 0.277E+00 0.319E+01   0.294E-01 -.118E+00 0.152E+00
   -.118E+01 0.141E+02 -.200E+04   0.983E+00 -.144E+02 0.199E+04   0.119E+00 0.420E+00 0.327E+01   0.573E-01 -.846E-01 0.105E+00
   -.221E+01 0.155E+02 -.201E+04   0.239E+01 -.156E+02 0.200E+04   -.112E+00 0.199E+00 0.321E+01   -.907E-01 -.104E+00 0.198E+00
   -.714E+01 0.131E+02 -.200E+04   0.582E+01 -.132E+02 0.200E+04   0.116E+01 0.999E-01 0.239E+01   0.588E-01 0.517E-01 0.192E+00
   0.134E+02 0.529E+02 -.184E+04   -.130E+02 -.524E+02 0.184E+04   -.302E+00 -.680E+00 -.700E+00   0.762E-01 0.515E-01 0.176E+00
   0.947E+01 0.239E+02 -.198E+04   -.556E+01 -.235E+02 0.198E+04   -.394E+01 -.363E+00 -.134E+01   -.131E+00 0.534E-01 0.211E+00
   0.131E+02 -.233E+02 -.200E+04   -.133E+02 0.236E+02 0.200E+04   0.500E-01 -.199E+00 0.321E+01   0.419E-01 0.656E-01 0.229E+00
   0.939E+01 -.707E+02 -.202E+04   -.960E+01 0.710E+02 0.202E+04   0.128E+00 -.271E+00 0.304E+01   0.596E-01 0.227E-01 0.189E+00
   -.182E+02 -.341E+02 -.198E+04   0.184E+02 0.343E+02 0.198E+04   -.106E+00 -.215E+00 0.312E+01   -.978E-01 0.553E-01 0.282E+00
   -.159E+02 -.317E+01 -.263E+03   0.170E+02 0.332E+01 0.264E+03   -.903E+00 -.250E+00 -.172E+01   -.766E-02 0.857E-02 0.391E-01
   -.302E+02 -.270E+02 -.228E+03   0.335E+02 0.297E+02 0.228E+03   -.315E+01 -.276E+01 -.181E+00   0.222E-02 0.130E-01 0.181E-01
   0.258E+02 0.216E+02 -.139E+04   -.293E+02 -.244E+02 0.139E+04   0.333E+01 0.325E+01 -.619E+01   0.826E-02 0.351E-01 0.870E-01
   0.407E+01 0.132E+01 0.147E+02   -.213E-13 0.178E-12 -.296E-11   -.407E+01 -.137E+01 -.162E+02   0.109E-01 0.555E-01 0.141E+01

 POSITION                                       TOTAL-FORCE (eV/Angst)
      1.39300      1.39300      0.00000        -0.006929      0.011246      0.119658
      4.17900      1.39300      0.00000         0.003097      0.003521      0.126656
      6.96500      1.39300      0.00000        -0.005995      0.030264      0.078083
      1.39300      4.17900      0.00000        -0.005131     -0.006055      0.111539
      4.17900      4.17900      0.00000        -0.007760      0.018167      0.101365
      6.96500      4.17900      0.00000        -0.003916     -0.005409      0.109079
      1.39300      6.96500      0.00000         0.016433     -0.023619      0.100282
      4.17900      6.96500      0.00000        -0.007006     -0.007740      0.111144
      6.96500      6.96500      0.00000        -0.019652     -0.001701      0.070989
      0.00000      0.00000      1.97000         0.039222     -0.090486     -0.205373
      2.78600      0.00000      1.97000        -0.020985     -0.128628     -0.015092
      5.57200      0.00000      1.97000        -0.013801     -0.078541     -0.114417
      0.00000      2.78600      1.97000         0.048462     -0.006675     -0.067345
      2.78600      2.78600      1.97000         0.030582     -0.027139      0.011851
      5.57200      2.78600      1.97000        -0.040374      0.041176     -0.078352
      0.00000      5.57200      1.97000         0.062840     -0.041553     -0.063094
      2.78600      5.57200      1.97000         0.019488     -0.113579     -0.177873
      5.57200      5.57200      1.97000        -0.054386     -0.075299     -0.014220
      1.38061      1.36037      3.91981         0.011381     -0.013997      0.030958
      4.20895      1.36080      3.91433        -0.042277      0.084354      0.207623
      6.97325      1.38611      3.92096        -0.094178      0.051343      0.107248
      1.40562      4.15947      3.95384        -0.142199     -0.064384     -0.065740
      4.16482      4.15794      3.96337         0.190910     -0.103943      0.000392
      6.97131      4.16003      3.92376        -0.114280     -0.071770      0.056155
      1.41642      6.90583      3.93884        -0.045116      0.076099      0.003654
      4.17095      6.90844      3.94720         0.038728      0.083913     -0.026632
      6.97359      6.95618      3.91067         0.008958      0.008112     -0.002521
      0.01007      8.30871      5.88895         0.013067      0.027740     -0.054842
      2.79561      8.25494      5.86909        -0.017530      0.042845      0.020484
      5.59577      8.33603      5.87565        -0.018217     -0.070373     -0.011934
      8.29978      2.75533      5.94045        -0.110414      0.029995      0.163217
      2.71761      2.65720      5.84840         0.134031     -0.118275      0.089231
      5.60090      2.75557      6.04654        -0.167405      0.057082     -0.006979
      0.00318      5.54838      5.87584        -0.032310      0.070018      0.031315
      2.78025      5.46294      6.05547        -0.015057      0.014575     -0.016573
      5.59144      5.55423      5.86621         0.003372      0.006128      0.058980
      6.60823      2.94635      7.31885         0.262584     -0.091302     -0.692300
      4.08563      4.19102      8.00133         0.168876     -0.029960     -0.065039
      3.06129      3.29214      7.95778        -0.067111      0.513852     -0.031574
    total drift:                                0.011177      0.006108     -0.007949

  FREE ENERGIE OF THE ION-ELECTRON SYSTEM (eV)
  free  energy   TOTEN  =      -186.76994710 eV

  energy  without entropy=     -186.69129298  energy(sigma->0) =     -186.74372906

 vacuum level on the upper side and lower side of the slab         5.409         5.300