 vasp.6.4.3 19Mar24 (build Oct  2 2024 09:01:45) complex
 executed on             LinuxGNU date 2025.02.24  13:03:13

 INCAR:
   ENCUT = 400.000000
   SIGMA = 0.100000
   EDIFF = 1.00e-04
   EDIFFG = -3.00e-02
   ALGO = Fast
   GGA = PE
   PREC = Accurate
   IBRION = -1
   ICHARG = 2
   IDIPOL = 3
   ISMEAR = 1
   ISYM = 0
   NPAR = 2
   LCHARG = .FALSE.
   LDIPOL = .TRUE.
   LWAVE = .FALSE.
   LREAL = Auto

 POTCAR:    PAW_PBE Pd 04Jan2005
 POTCAR:    PAW_PBE H 15Jun2001
 POTCAR:    PAW_PBE S 06Sep2000
 POTCAR:    PAW_PBE Pd 04Jan2005
   VRHFIN =Pd : s1 d9

   TITEL  = PAW_PBE Pd 04Jan2005
   POMASS =  106.420; ZVAL   =   10.000    mass and valenz
   ENMAX  =  250.925; ENMIN  =  188.194 eV

   TITEL  = PAW_PBE H 15Jun2001
   POMASS =    1.000; ZVAL   =    1.000    mass and valenz
   ENMAX  =  250.000; ENMIN  =  200.000 eV

   TITEL  = PAW_PBE S 06Sep2000
   POMASS =   32.066; ZVAL   =    6.000    mass and valenz
   ENMAX  =  258.689; ENMIN  =  194.016 eV

 Optimization of the real space projectors (new method)

 maximal supplied QI-value         = 14.36
 optimisation between [QCUT,QGAM] = [ 10.20, 20.39] = [ 29.12,116.47] Ry
 Optimized for a Real-space Cutoff    1.55 Angstroem

   l    n(q)    QCUT    max X(q) W(low)/X(q) W(high)/X(q)  e(spline)
   2      9    10.197    59.108    0.12E-03    0.40E-04    0.11E-06
   2      9    10.197    58.101    0.12E-03    0.39E-04    0.12E-06
   0      9    10.197   102.235    0.41E-04    0.86E-05    0.83E-07
   0      9    10.197    58.388    0.37E-04    0.79E-05    0.78E-07
   1      9    10.197    22.191    0.25E-03    0.13E-03    0.84E-07
   1      9    10.197    15.590    0.21E-03    0.11E-03    0.74E-07
 Optimization of the real space projectors (new method)

[...]

   l    n(q)    QCUT    max X(q) W(low)/X(q) W(high)/X(q)  e(spline)
   0      8     9.919    19.460    0.16E-03    0.20E-03    0.36E-06
   0      8     9.919    12.209    0.16E-03    0.20E-03    0.35E-06
   1      8     9.919     4.655    0.19E-03    0.46E-03    0.40E-06
 Optimization of the real space projectors (new method)

 maximal supplied QI-value         = 19.84
 optimisation between [QCUT,QGAM] = [ 10.12, 20.44] = [ 28.68,116.96] Ry
 Optimized for a Real-space Cutoff    1.42 Angstroem

   l    n(q)    QCUT    max X(q) W(low)/X(q) W(high)/X(q)  e(spline)
   0      9    10.119   187.594    0.52E-04    0.93E-04    0.64E-07
   0      9    10.119   164.243    0.51E-04    0.92E-04    0.63E-07
   1      8    10.119    67.533    0.16E-03    0.17E-03    0.23E-06
   1      8    10.119    50.729    0.16E-03    0.16E-03    0.23E-06
  PAW_PBE Pd 04Jan2005                  :
  PAW_PBE H 15Jun2001                   :
  PAW_PBE S 06Sep2000                   :

 POSCAR: Pd H  S
  positions in cartesian coordinates

 exchange-correlation table for PE
   RHO(1)=    0.500       N(1)  =     2000
   RHO(2)=  100.500       N(2)  =     4000

 ion  position               nearest neighbor table
   1  0.167  0.167  0.000-   3 2.79   7 2.79   4 2.79   2 2.79  10 2.79  11 2.79  13 2.79  14 2.79

   2  0.500  0.167  0.000-   8 2.79   3 2.79   5 2.79   1 2.79  11 2.79  12 2.79  14 2.79  15 2.79

[...]

  10  0.000  0.000  0.099-  27 2.76  21 2.77  25 2.78  16 2.79  11 2.79  12 2.79  13 2.79   9 2.79
                             1 2.79   3 2.79   7 2.79  19 2.80
  11  0.333  0.000  0.099-  25 2.77  26 2.78  19 2.78  20 2.78  12 2.79  14 2.79  17 2.79  10 2.79
                             2 2.79   8 2.79   7 2.79   1 2.79
  12  0.667  0.000  0.099-  26 2.76  21 2.77  27 2.78  11 2.79  10 2.79  15 2.79  18 2.79   8 2.79
                             2 2.79   9 2.79   3 2.79  20 2.79
  13  0.000  0.333  0.099-  24 2.77  21 2.77  22 2.78  16 2.79  14 2.79  15 2.79  10 2.79   6 2.79
                             4 2.79   3 2.79   1 2.79  19 2.79
  14  0.333  0.333  0.099-  22 2.77  19 2.77  23 2.78  20 2.78  15 2.79  17 2.79  11 2.79  13 2.79
                             5 2.79   4 2.79   2 2.79   1 2.79
  15  0.667  0.333  0.099-  24 2.77  21 2.78  23 2.78  18 2.79  14 2.79  13 2.79  12 2.79   5 2.79
                             6 2.79   2 2.79   3 2.79  20 2.79
  16  0.000  0.667  0.099-  27 2.76  24 2.76  25 2.77  13 2.79  10 2.79  17 2.79  18 2.79   6 2.79
                             4 2.79   9 2.79   7 2.79  22 2.80
  17  0.333  0.667  0.099-  25 2.77  26 2.77  14 2.79  18 2.79  16 2.79  11 2.79   5 2.79   4 2.79
                             8 2.79   7 2.79  22 2.79  23 2.79
  18  0.667  0.667  0.099-  26 2.76  27 2.77  24 2.77  17 2.79  15 2.79  12 2.79  16 2.79   5 2.79
                             8 2.79   6 2.79   9 2.79  23 2.80
  19  0.169  0.168  0.198-  22 2.75  20 2.76  14 2.77  31 2.77  29 2.77  11 2.78  28 2.78  13 2.79
                            10 2.80  25 2.80  21 2.80  32 2.81
  20  0.499  0.167  0.198-  29 2.76  19 2.76  23 2.77  33 2.78  14 2.78  11 2.78  26 2.79  15 2.79
                            12 2.79  21 2.80  30 2.80  32 2.88
  21  0.834  0.166  0.197-  31 2.76  10 2.77  12 2.77  30 2.77  13 2.77  15 2.78  27 2.78  28 2.79
                            33 2.79  20 2.80  24 2.80  19 2.80
  22  0.168  0.497  0.198-  19 2.75  31 2.77  35 2.77  23 2.77  14 2.77  13 2.78  24 2.79  34 2.79
                            17 2.79  16 2.80  25 2.81  32 2.82
  23  0.499  0.498  0.198-  35 2.74  22 2.77  20 2.77  33 2.77  14 2.78  15 2.78  17 2.79  36 2.79
                            26 2.80  18 2.80  24 2.80  32 2.88
  24  0.834  0.500  0.197-  16 2.76  31 2.77  13 2.77  18 2.77  36 2.77  15 2.77  27 2.78  22 2.79
                            34 2.79  33 2.79  21 2.80  23 2.80
  25  0.167  0.833  0.197-  29 2.76  17 2.77  11 2.77  16 2.77  35 2.77  10 2.78  28 2.78  34 2.78
                            27 2.78  26 2.80  19 2.80  22 2.81
  26  0.502  0.833  0.197-  18 2.76  12 2.76  29 2.77  35 2.77  17 2.77  11 2.78  27 2.78  20 2.79
                            36 2.79  30 2.79  25 2.80  23 2.80
  27  0.835  0.833  0.197-  16 2.76  10 2.76  18 2.77  36 2.77  30 2.77  12 2.78  25 2.78  24 2.78
                            34 2.78  26 2.78  21 2.78  28 2.79
  28  0.002  0.999  0.296-  30 2.77  34 2.77  25 2.78  19 2.78  29 2.78  27 2.79  21 2.79  31 2.79

[...]

  32  0.326  0.331  0.302-  39 2.30  31 2.75  29 2.80  35 2.80  19 2.81  22 2.82  33 2.86  20 2.88
                            23 2.88
  33  0.667  0.333  0.296-  37 2.05  31 2.76  23 2.77  20 2.78  21 2.79  36 2.79  24 2.79  30 2.80
                            32 2.86
  34  0.001  0.668  0.296-  36 2.76  28 2.77  25 2.78  27 2.78  24 2.79  22 2.79  35 2.80  31 2.80

[...]

  37  0.574  0.334  0.391-  39 1.42  33 2.05
  38  0.417  0.494  0.424-  39 1.36
  39  0.411  0.334  0.412-  38 1.36  37 1.42  32 2.30

IMPORTANT INFORMATION: All symmetrisations will be switched off!
NOSYMM: (Re-)initialisation of all symmetry stuff for point group C_1.

                                     Primitive cell

  volume of cell :    1390.8369

  direct lattice vectors                    reciprocal lattice vectors
     8.358002154  0.000000000  0.000000000     0.119645817  0.000000000  0.000000000
     0.000000000  8.358002154  0.000000000     0.000000000  0.119645817  0.000000000
     0.000000000  0.000000000 19.910000000     0.000000000  0.000000000  0.050226017

  length of vectors
     8.358002154  8.358002154 19.910000000     0.119645817  0.119645817  0.050226017

  position of ions in fractional coordinates (direct lattice)
     0.166666667  0.166666667  0.000000000
     0.500000000  0.166666667  0.000000000
     0.833333333  0.166666667  0.000000000
     0.166666667  0.500000000  0.000000000
     0.500000000  0.500000000  0.000000000
     0.833333333  0.500000000  0.000000000
     0.166666667  0.833333333  0.000000000
     0.500000000  0.833333333  0.000000000
     0.833333333  0.833333333  0.000000000
     0.000000000  0.000000000  0.098945254
     0.333333333  0.000000000  0.098945254
     0.666666667  0.000000000  0.098945254
     0.000000000  0.333333333  0.098945254
     0.333333333  0.333333333  0.098945254
     0.666666667  0.333333333  0.098945254
     0.000000000  0.666666667  0.098945254
     0.333333333  0.666666667  0.098945254
     0.666666667  0.666666667  0.098945254
     0.168853560  0.168252492  0.197807595
     0.499145732  0.166797036  0.198000380
     0.833615148  0.165914768  0.196920766
     0.167887008  0.497387233  0.197754867
     0.499021595  0.498060515  0.198066997
     0.834146626  0.500456157  0.196715553
     0.167028626  0.833096101  0.196930116
     0.501707207  0.833105820  0.196528233
     0.834728772  0.832823071  0.196544113
     0.001514194  0.999254175  0.295638429
     0.334536801  0.996922325  0.294697410
     0.670626515  0.998515941  0.295719443
     0.997696839  0.332937383  0.294864025
     0.325828189  0.331429171  0.302033275
     0.667156830  0.333291352  0.295993150
     0.000812123  0.667685609  0.295763329
     0.335500937  0.666266560  0.294392164
     0.670151809  0.667140497  0.295459866
     0.573770245  0.334279983  0.391253460
     0.417217186  0.494052053  0.424085492
     0.411334350  0.334222677  0.411861026

  ion indices of the primitive-cell ions
   primitive index   ion index
                 1           1
                 2           2
                 3           3
                 4           4
                 5           5
                 6           6
                 7           7
                 8           8
                 9           9
                10          10
                11          11
                12          12
                13          13
                14          14
                15          15
                16          16
                17          17
                18          18
                19          19
                20          20
                21          21
                22          22
                23          23
                24          24
                25          25
                26          26
                27          27
                28          28
                29          29
                30          30
                31          31
                32          32
                33          33
                34          34
                35          35
                36          36
                37          37
                38          38
                39          39

 KPOINTS: KPOINTS created by Atomic Simulation Env

Automatic generation of k-mesh.
 Grid dimensions read from file:
 generate k-points for:    2    2    1

 Generating k-lattice:

  Cartesian coordinates                     Fractional coordinates (reciprocal lattice)
     0.059822909  0.000000000  0.000000000     0.500000000  0.000000000  0.000000000
     0.000000000  0.059822909  0.000000000     0.000000000  0.500000000  0.000000000
     0.000000000  0.000000000  0.050226017     0.000000000  0.000000000  1.000000000

  Length of vectors
     0.059822909  0.059822909  0.050226017

  Shift w.r.t. Gamma in fractional coordinates (k-lattice)
     0.500000000  0.500000000  0.000000000

 Subroutine IBZKPT returns following result:

 Found      2 irreducible k-points:

 Following reciprocal coordinates:
[...]
      21 -79.3743      22 -79.3608      23 -79.3151      24 -79.3729      25 -79.3918
      26 -79.3820      27 -79.4284      28 -78.8588      29 -78.8801      30 -78.8413
      31 -78.8998      32 -79.3820      33 -78.9721      34 -78.8519      35 -78.8943
      36 -78.8523      37 -37.9734      38 -38.3830      39 -92.2454

 E-fermi :   0.8240     XC(G=0):  -6.3665     alpha+bet : -6.5687

 val. band max:        0.8145820122   @ k =  -0.2500   0.2500   0.0000
 cond. band min:       0.8321553082   @ k =   0.2500   0.2500   0.0000
 fundamental gap:      0.0175732960
 Fermi energy:         0.8240478751

 k-point     1 :       0.2500    0.2500    0.0000
  band No.  band energies     occupation
      1     -14.1698      2.00000
      2      -6.4623      2.00000
      3      -5.2464      2.00000
      4      -5.1013      2.00000
      5      -4.1748      2.00000
      6      -4.1499      2.00000
      7      -3.9356      2.00000
      8      -3.7908      2.00000
      9      -3.7061      2.00000
     10      -3.6916      2.00000
     11      -3.6895      2.00000
     12      -3.6723      2.00000
     13      -3.6670      2.00000
     14      -3.6226      2.00000
     15      -3.5731      2.00000
     16      -3.5425      2.00000
     17      -3.5147      2.00000
     18      -3.5018      2.00000
     19      -3.4941      2.00000
     20      -3.4361      2.00000
     21      -3.3868      2.00000
     22      -3.2818      2.00000
     23      -3.2793      2.00000
     24      -3.2737      2.00000
     25      -3.2544      2.00000
     26      -3.1426      2.00000
     27      -3.1383      2.00000
     28      -3.1258      2.00000
     29      -3.0963      2.00000
     30      -3.0846      2.00000
     31      -3.0719      2.00000
     32      -3.0592      2.00000
     33      -2.9738      2.00000
     34      -2.9614      2.00000
     35      -2.9536      2.00000
     36      -2.8889      2.00000
     37      -2.8256      2.00000
     38      -2.8042      2.00000
     39      -2.7982      2.00000
     40      -2.7881      2.00000
     41      -2.7828      2.00000
     42      -2.7678      2.00000
     43      -2.7585      2.00000
     44      -2.7524      2.00000
     45      -2.7261      2.00000
     46      -2.6119      2.00000
     47      -2.5281      2.00000
     48      -2.5176      2.00000
     49      -2.4914      2.00000
     50      -2.4648      2.00000
     51      -2.4411      2.00000
     52      -2.3801      2.00000
     53      -2.3643      2.00000
     54      -2.3435      2.00000
     55      -2.3321      2.00000
     56      -2.3079      2.00000
     57      -2.2998      2.00000
     58      -2.2732      2.00000
     59      -2.1962      2.00000
     60      -2.1814      2.00000
[...]
    206       3.5845      0.00000
    207       3.6567      0.00000
    208       3.7644      0.00000
    209       3.9649      0.00000
    210       4.1496      0.00000
    211       4.3474      0.00000
    212       4.4354      0.00000
    213       4.9215      0.00000
    214       4.9471      0.00000
    215       5.3008      0.00000
    216       5.3503      0.00000
    217       5.5079      0.00000
    218       5.7002      0.00000
    219       5.7806      0.00000
    220       6.1020      0.00000

 k-point     2 :      -0.2500    0.2500    0.0000
  band No.  band energies     occupation
      1     -14.1698      2.00000
      2      -6.4625      2.00000
      3      -5.2369      2.00000
      4      -5.1123      2.00000
      5      -4.1694      2.00000
      6      -4.1484      2.00000
      7      -3.9404      2.00000
      8      -3.7937      2.00000
      9      -3.7031      2.00000
     10      -3.6971      2.00000
     11      -3.6816      2.00000
     12      -3.6749      2.00000
     13      -3.6682      2.00000
     14      -3.6220      2.00000
     15      -3.5731      2.00000
     16      -3.5420      2.00000
     17      -3.5155      2.00000
     18      -3.5015      2.00000
     19      -3.4904      2.00000
     20      -3.4447      2.00000
     21      -3.3720      2.00000
     22      -3.2860      2.00000
     23      -3.2822      2.00000
     24      -3.2724      2.00000
     25      -3.2630      2.00000
     26      -3.1432      2.00000
     27      -3.1363      2.00000
     28      -3.1254      2.00000
     29      -3.0994      2.00000
     30      -3.0806      2.00000
     31      -3.0709      2.00000
     32      -3.0601      2.00000
     33      -2.9733      2.00000
     34      -2.9635      2.00000
     35      -2.9540      2.00000
     36      -2.8902      2.00000
     37      -2.8234      2.00000
     38      -2.8034      2.00000
     39      -2.8000      2.00000
     40      -2.7851      2.00000
     41      -2.7834      2.00000
     42      -2.7666      2.00000
     43      -2.7594      2.00000
     44      -2.7547      2.00000
     45      -2.7219      2.00000
     46      -2.6116      2.00000
     47      -2.5314      2.00000
     48      -2.5161      2.00000
     49      -2.4874      2.00000
     50      -2.4777      2.00000
     51      -2.4287      2.00000
     52      -2.3840      2.00000
     53      -2.3613      2.00000
     54      -2.3418      2.00000
     55      -2.3341      2.00000
     56      -2.3071      2.00000
     57      -2.3012      2.00000
     58      -2.2731      2.00000
     59      -2.1988      2.00000
     60      -2.1768      2.00000
[...]
    206       3.5700      0.00000
    207       3.6656      0.00000
    208       3.7717      0.00000
    209       3.9443      0.00000
    210       4.1545      0.00000
    211       4.3234      0.00000
    212       4.4447      0.00000
    213       4.9166      0.00000
    214       4.9353      0.00000
    215       5.3340      0.00000
    216       5.3964      0.00000
    217       5.5024      0.00000
    218       5.6802      0.00000
    219       5.7245      0.00000
    220       6.1322      0.00000

 soft charge-density along one line, spin component           1
         0         1         2         3         4         5         6         7         8         9
 total charge-density along one line

------------------------ aborting loop because EDIFF is reached ----------------------------------------

  FORCE on cell =-STRESS in cart. coord.  units (eV):
  Direction    XX          YY          ZZ          XY          YZ          ZX
  Alpha Z   628.75265   628.75265   628.75265
  Ewald   94872.68069 94833.80094************     0.92363    20.34200    11.22702
  Hartree102832.87657102809.13541-99597.66414     0.43990     6.30864     5.99524
  E(xc)   -1907.59507 -1907.68594 -1915.92219    -0.00432     0.10041     0.02936
  Local  ************************207782.82150    -2.73773   -22.00878   -18.53762
  n-local  -128.11497  -127.93670  -131.92326     0.24174     0.44022     0.58973
  augment  2646.24543  2646.71568  2676.83708    -0.09345    -0.19693    -1.00567
  Kinetic  4986.99039  4985.94688  5059.76421     1.18951    -4.86626     1.49086
  Fock        0.00000     0.00000     0.00000     0.00000     0.00000     0.00000
  Total     -21.66325   -21.99165    -4.50841    -0.04071     0.11930    -0.21107
  in kB     -24.95503   -25.33333    -5.19347    -0.04690     0.13743    -0.24315

 VOLUME and BASIS-vectors are now :
  energy-cutoff  :      400.00
  volume of cell :     1390.84
      direct lattice vectors                 reciprocal lattice vectors
     8.358002154  0.000000000  0.000000000     0.119645817  0.000000000  0.000000000
     0.000000000  8.358002154  0.000000000     0.000000000  0.119645817  0.000000000
     0.000000000  0.000000000 19.910000000     0.000000000  0.000000000  0.050226017

  length of vectors
     8.358002154  8.358002154 19.910000000     0.119645817  0.119645817  0.050226017

 FORCES acting on ions
    electron-ion (+dipol)            ewald-force                    non-local-force                 convergence-correction
   -.288E-01 0.195E+00 0.209E+04   -.139E-01 -.121E+00 -.209E+04   0.138E-02 -.163E-02 -.303E+01   0.569E-01 -.609E-01 0.578E-01
   0.222E-01 -.732E-01 0.209E+04   0.108E-01 0.117E+00 -.209E+04   -.502E-02 0.269E-02 -.303E+01   -.291E-01 -.437E-01 0.718E-01
   0.331E-01 0.746E-01 0.209E+04   -.816E-02 0.710E-01 -.209E+04   -.104E-01 -.722E-01 -.305E+01   -.280E-01 -.664E-01 0.558E-01
   -.174E+00 -.218E+00 0.209E+04   0.125E+00 0.926E-01 -.209E+04   0.114E-02 0.433E-04 -.303E+01   0.598E-01 0.120E+00 0.105E+00
   0.900E-01 -.920E-02 0.209E+04   -.476E-01 -.827E-01 -.209E+04   -.703E-02 -.607E-02 -.303E+01   -.349E-01 0.999E-01 0.114E+00
   0.109E+00 -.113E-01 0.209E+04   -.867E-01 -.175E+00 -.209E+04   -.900E-02 0.666E-01 -.304E+01   -.250E-01 0.120E+00 0.974E-01
   -.368E-01 0.212E-01 0.209E+04   0.934E-01 0.365E-01 -.209E+04   -.859E-01 -.652E-03 -.308E+01   0.378E-01 -.591E-01 0.119E+00
   0.174E+00 0.804E-01 0.209E+04   -.218E+00 -.227E-01 -.209E+04   0.661E-01 -.245E-02 -.304E+01   -.290E-01 -.563E-01 0.114E+00
   -.168E+00 -.695E-01 0.209E+04   0.105E+00 0.110E+00 -.209E+04   0.466E-01 0.597E-02 -.323E+01   -.866E-02 -.533E-01 0.111E+00
   -.247E+01 -.188E+01 0.744E+03   0.241E+01 0.195E+01 -.745E+03   0.952E-01 0.111E+00 -.313E-01   0.703E-02 -.162E+00 0.234E+00
   0.587E+00 -.643E+00 0.746E+03   -.638E+00 0.766E+00 -.746E+03   0.216E-01 0.467E-01 -.186E-02   0.308E-01 -.119E+00 0.201E+00
   0.888E+00 -.233E+01 0.746E+03   -.766E+00 0.239E+01 -.746E+03   -.697E-01 0.637E-01 -.290E-01   -.373E-01 -.109E+00 0.242E+00
   -.380E+00 0.105E+01 0.747E+03   0.372E+00 -.113E+01 -.747E+03   0.510E-01 -.208E-01 -.581E-02   0.892E-02 0.881E-01 0.254E+00
   -.172E+01 -.103E+00 0.749E+03   0.163E+01 0.135E-01 -.749E+03   0.356E-01 -.119E-01 -.219E+00   0.763E-01 0.921E-01 0.249E+00
   0.146E+01 0.262E+00 0.745E+03   -.141E+01 -.339E+00 -.745E+03   -.342E-01 -.867E-02 -.465E-01   -.852E-01 0.798E-01 0.301E+00
   -.321E+01 0.127E+01 0.745E+03   0.315E+01 -.124E+01 -.746E+03   0.946E-01 -.116E+00 -.438E-01   0.190E-01 0.741E-01 0.254E+00
   0.274E+00 0.138E+01 0.745E+03   -.317E+00 -.141E+01 -.745E+03   0.263E-01 -.713E-01 0.667E-02   0.222E-01 0.269E-01 0.222E+00
   0.203E+01 0.264E+01 0.746E+03   -.192E+01 -.261E+01 -.746E+03   -.764E-01 -.871E-01 -.236E-01   -.408E-01 0.291E-01 0.257E+00
   0.694E+01 0.906E+01 -.650E+03   -.675E+01 -.874E+01 0.650E+03   -.264E+00 -.301E+00 -.123E+00   0.427E-01 -.488E-01 0.214E+00
   -.416E+01 0.275E+01 -.652E+03   0.407E+01 -.278E+01 0.651E+03   0.107E+00 -.441E-02 0.159E+00   0.237E-01 0.254E-01 0.203E+00
   -.111E+01 0.340E+01 -.646E+03   0.114E+01 -.332E+01 0.646E+03   0.454E-01 -.893E-02 -.639E-01   -.637E-01 -.372E-01 0.234E+00
   0.502E+01 -.966E+01 -.650E+03   -.490E+01 0.928E+01 0.650E+03   -.175E+00 0.311E+00 -.743E-01   0.494E-01 0.140E+00 0.183E+00
   -.357E+01 -.279E+01 -.648E+03   0.352E+01 0.275E+01 0.648E+03   0.929E-01 0.326E-01 0.154E+00   0.642E-02 0.545E-01 0.175E+00
   -.205E-01 -.216E+01 -.643E+03   0.555E-01 0.201E+01 0.643E+03   -.118E-01 0.276E-03 -.245E-01   -.537E-01 0.110E+00 0.203E+00
   0.347E+01 0.662E+00 -.648E+03   -.344E+01 -.576E+00 0.648E+03   0.231E-02 -.161E-01 -.101E+00   -.128E-01 -.888E-01 0.182E+00
   -.227E+01 -.674E-01 -.643E+03   0.224E+01 0.147E+00 0.643E+03   0.412E-01 -.164E-01 -.227E-01   -.830E-02 -.789E-01 0.158E+00
   -.133E+01 -.177E+01 -.649E+03   0.132E+01 0.184E+01 0.649E+03   -.187E-01 0.410E-01 0.383E-01   0.208E-01 -.726E-01 0.182E+00
   0.570E+01 0.104E+02 -.203E+04   -.577E+01 -.104E+02 0.202E+04   0.590E-01 0.786E-01 0.302E+01   -.774E-02 -.925E-01 0.963E-01
   0.592E+01 0.315E+02 -.200E+04   -.596E+01 -.318E+02 0.199E+04   0.657E-01 0.373E+00 0.306E+01   -.671E-03 -.612E-01 0.859E-01
   -.111E+02 0.190E+02 -.202E+04   0.113E+02 -.191E+02 0.201E+04   -.195E+00 0.981E-01 0.299E+01   0.895E-02 -.234E-01 0.640E-01
   0.213E+02 0.223E+00 -.200E+04   -.216E+02 -.277E+00 0.200E+04   0.187E+00 0.211E-01 0.301E+01   -.358E-01 0.456E-01 0.112E+00
   0.445E+02 0.732E+01 -.191E+04   -.444E+02 -.729E+01 0.192E+04   -.182E+00 -.820E-01 -.283E+00   0.612E-01 0.498E-01 0.638E-01
   -.510E+02 0.433E+01 -.195E+04   0.519E+02 -.437E+01 0.195E+04   -.823E+00 -.101E-01 0.247E+01   -.318E-01 0.399E-01 0.470E-01
   0.393E+01 -.107E+02 -.203E+04   -.404E+01 0.108E+02 0.202E+04   0.119E+00 -.107E+00 0.303E+01   0.471E-02 0.463E-01 0.508E-01
   0.119E+02 -.378E+02 -.198E+04   -.119E+02 0.382E+02 0.198E+04   -.101E-01 -.388E+00 0.298E+01   -.522E-02 0.656E-02 0.394E-01
   -.151E+02 -.234E+02 -.201E+04   0.152E+02 0.235E+02 0.201E+04   -.167E+00 -.872E-01 0.294E+01   0.229E-02 -.170E-01 0.242E-01
   -.359E+02 0.218E+01 -.228E+03   0.392E+02 -.224E+01 0.228E+03   -.325E+01 0.147E-01 0.713E+00   0.237E-02 0.170E-02 -.402E-03
   -.395E+00 -.439E+02 -.217E+03   0.535E+00 0.483E+02 0.218E+03   -.150E+00 -.433E+01 -.756E+00   0.212E-03 0.471E-02 0.419E-02
   0.220E+02 0.400E+02 -.134E+04   -.242E+02 -.443E+02 0.134E+04   0.223E+01 0.424E+01 -.499E+01   0.700E-02 0.113E-01 0.135E-01
   0.215E+01 0.231E+00 0.444E+01   -.497E-13 0.178E-12 0.159E-11   -.216E+01 -.241E+00 -.985E+01   0.106E-01 0.152E-01 0.539E+01

 POSITION                                       TOTAL-FORCE (eV/Angst)
      1.39300      1.39300      0.00000         0.015689      0.011369      0.118347
      4.17900      1.39300      0.00000        -0.001162      0.002305      0.115992
      6.96500      1.39300      0.00000        -0.013391      0.006922      0.107906
      1.39300      4.17900      0.00000         0.012712     -0.005167      0.119004
      4.17900      4.17900      0.00000         0.000412      0.001841      0.117381
      6.96500      4.17900      0.00000        -0.011665     -0.000106      0.103671
      1.39300      6.96500      0.00000         0.008355     -0.002229      0.104869
      4.17900      6.96500      0.00000        -0.006742     -0.001133      0.100011
      6.96500      6.96500      0.00000        -0.025479     -0.006712      0.036826
      0.00000      0.00000      1.97000         0.040926      0.019392     -0.114376
      2.78600      0.00000      1.97000         0.000835      0.050717     -0.033658
      5.57200      0.00000      1.97000         0.014854      0.016861     -0.090579
      0.00000      2.78600      1.97000         0.052144     -0.018998     -0.008613
      2.78600      2.78600      1.97000         0.027425     -0.009393     -0.164324
      5.57200      2.78600      1.97000        -0.072899     -0.005709     -0.025311
      0.00000      5.57200      1.97000         0.046171     -0.008189     -0.122975
      2.78600      5.57200      1.97000         0.005647     -0.078325     -0.025219
      5.57200      5.57200      1.97000        -0.004426     -0.035306     -0.084995
      1.41128      1.40625      3.93835        -0.031694     -0.033555      0.019223
      4.17186      1.39409      3.94219         0.044566     -0.014728     -0.009316
      6.96736      1.38672      3.92069         0.004709      0.032707     -0.009626
      1.40320      4.15716      3.93730        -0.007573      0.071022      0.005004
      4.17082      4.16279      3.94351         0.052036      0.040868     -0.046618
      6.97180      4.18281      3.91661        -0.030537     -0.037372      0.017598
      1.39603      6.96302      3.92088         0.022705     -0.019413     -0.055832
      4.19327      6.96310      3.91288         0.004596     -0.015818      0.041844
      6.97666      6.96074      3.91319        -0.011842      0.035735     -0.012634
      0.01266      8.35177      5.88616        -0.024343     -0.017903     -0.040770
      2.79606      8.33228      5.86743         0.020816     -0.006462     -0.017075
      5.60510      8.34560      5.88777        -0.058871     -0.020495     -0.075176
      8.33875      2.78269      5.87074        -0.116214      0.013095      0.001006
      2.72327      2.77009      6.01348        -0.018609      0.001453     -0.042515
      5.57610      2.78565      5.89322         0.029398     -0.003945      0.041812
      0.00679      5.58052      5.88865         0.014037     -0.013742     -0.053692
      2.80412      5.56866      5.86135        -0.041323      0.030856     -0.018591
      5.60113      5.57596      5.88261        -0.040418      0.026964     -0.065211
      4.79557      2.79391      7.78986         0.076111     -0.042335     -0.024985
      3.48710      4.12929      8.44354        -0.010008      0.089303      0.009257
      3.43793      2.79343      8.20015         0.033053     -0.054376      0.082340
    total drift:                               -0.000314      0.005989     -0.017849

  FREE ENERGIE OF THE ION-ELECTRON SYSTEM (eV)
  free  energy   TOTEN  =      -186.83280223 eV

  energy  without entropy=     -186.73702793  energy(sigma->0) =     -186.80087746

 vacuum level on the upper side and lower side of the slab         4.965         5.349