 vasp.6.4.3 19Mar24 (build Oct  2 2024 09:01:45) complex
 executed on             LinuxGNU date 2025.02.17  17:12:09

 INCAR:
   ENCUT = 400.000000
   SIGMA = 0.100000
   EDIFF = 1.00e-04
   EDIFFG = -3.00e-02
   ALGO = Fast
   GGA = PE
   PREC = Accurate
   IBRION = -1
   ICHARG = 2
   IDIPOL = 3
   ISMEAR = 1
   ISYM = 0
   NPAR = 2
   LCHARG = .FALSE.
   LDIPOL = .TRUE.
   LWAVE = .FALSE.
   LREAL = Auto

 POTCAR:    PAW_PBE Au 04Oct2007
 POTCAR:    PAW_PBE O 08Apr2002
 POTCAR:    PAW_PBE Au 04Oct2007
   VRHFIN =Au: s1d10

   TITEL  = PAW_PBE Au 04Oct2007
   POMASS =  196.966; ZVAL   =   11.000    mass and valenz
   ENMAX  =  229.943; ENMIN  =  172.457 eV

   TITEL  = PAW_PBE O 08Apr2002
   POMASS =   16.000; ZVAL   =    6.000    mass and valenz
   ENMAX  =  400.000; ENMIN  =  300.000 eV

 Optimization of the real space projectors (new method)

 maximal supplied QI-value         = 15.12
 optimisation between [QCUT,QGAM] = [ 10.13, 20.41] = [ 28.73,116.64] Ry
 Optimized for a Real-space Cutoff    1.55 Angstroem

   l    n(q)    QCUT    max X(q) W(low)/X(q) W(high)/X(q)  e(spline)
   2      9    10.129    60.898    0.14E-03    0.27E-03    0.16E-06
   2      9    10.129    58.894    0.14E-03    0.27E-03    0.17E-06
   0      9    10.129   109.617    0.51E-04    0.23E-04    0.60E-07
   0      9    10.129    75.026    0.50E-04    0.22E-04    0.58E-07
   1      9    10.129    16.344    0.46E-04    0.82E-04    0.13E-06
   1      9    10.129    10.160    0.41E-04    0.64E-04    0.11E-06
 Optimization of the real space projectors (new method)

 maximal supplied QI-value         = 24.76
 optimisation between [QCUT,QGAM] = [ 10.15, 20.30] = [ 28.85,115.39] Ry
 Optimized for a Real-space Cutoff    1.51 Angstroem

   l    n(q)    QCUT    max X(q) W(low)/X(q) W(high)/X(q)  e(spline)
   0      9    10.150    20.381    0.17E-03    0.18E-03    0.41E-06
   0      9    10.150    15.268    0.18E-03    0.20E-03    0.43E-06
   1      9    10.150     5.964    0.16E-03    0.20E-03    0.36E-06
   1      9    10.150     5.382    0.13E-03    0.16E-03    0.33E-06
  PAW_PBE Au 04Oct2007                  :
  PAW_PBE O 08Apr2002                   :

 POSCAR: Au O
  positions in cartesian coordinates

 exchange-correlation table for PE
   RHO(1)=    0.500       N(1)  =     2000
   RHO(2)=  100.500       N(2)  =     4000

 ion  position               nearest neighbor table
   1  0.000  0.000  0.000-  12 2.93  16 2.93  10 2.93   8 2.93   6 2.93   4 2.93   7 2.93   3 2.93
                             2 2.93
   2  0.333  0.000  0.000-  10 2.93  11 2.93  17 2.93   3 2.93   9 2.93   4 2.93   5 2.93   8 2.93
                             1 2.93
   3  0.667  0.000  0.000-  11 2.93  18 2.93   2 2.93  12 2.93   5 2.93   7 2.93   9 2.93   6 2.93
                             1 2.93
   4  0.000  0.333  0.000-  10 2.93  13 2.93  15 2.93   7 2.93   9 2.93   2 2.93   1 2.93   6 2.93
                             5 2.93
   5  0.333  0.333  0.000-  14 2.93  11 2.93  13 2.93   8 2.93   6 2.93   3 2.93   7 2.93   2 2.93
                             4 2.93
   6  0.667  0.333  0.000-  12 2.93  14 2.93  15 2.93   9 2.93   8 2.93   5 2.93   1 2.93   3 2.93
                             4 2.93
   7  0.000  0.667  0.000-  13 2.93  18 2.93   4 2.93  16 2.93   5 2.93   3 2.93   1 2.93   9 2.93
                             8 2.93
   8  0.333  0.667  0.000-  14 2.93  16 2.93  17 2.93   6 2.93   5 2.93   9 2.93   1 2.93   2 2.93
                             7 2.93
   9  0.667  0.667  0.000-  15 2.93  17 2.93   6 2.93   8 2.93  18 2.93   4 2.93   2 2.93   3 2.93
                             7 2.93
  10  0.111  0.111  0.103-   2 2.93   4 2.93  13 2.93  11 2.93   1 2.93  15 2.93  17 2.93  16 2.93
                            12 2.93  26 2.95  19 2.95  20 2.95
  11  0.444  0.111  0.103-  21 2.90  27 2.93   5 2.93   2 2.93   3 2.93  13 2.93  14 2.93  10 2.93
                            18 2.93  17 2.93  12 2.93  20 2.97
  12  0.778  0.111  0.103-  21 2.90  25 2.93   1 2.93   6 2.93  15 2.93   3 2.93  14 2.93  16 2.93
                            18 2.93  10 2.93  11 2.93  19 2.97
  13  0.111  0.444  0.103-  23 2.90  22 2.93   7 2.93   5 2.93   4 2.93  10 2.93  11 2.93  14 2.93
                            18 2.93  16 2.93  15 2.93  20 2.97
  14  0.444  0.444  0.103-  21 2.92  24 2.92  23 2.92   5 2.93   8 2.93   6 2.93  11 2.93  13 2.93
                            16 2.93  12 2.93  17 2.93  15 2.93
  15  0.778  0.444  0.103-  24 2.90  22 2.93   9 2.93   6 2.93   4 2.93  12 2.93  10 2.93  17 2.93
                            18 2.93  13 2.93  14 2.93  19 2.97
  16  0.111  0.778  0.103-  23 2.90  25 2.93   1 2.93   8 2.93  17 2.93   7 2.93  14 2.93  12 2.93
                            10 2.93  13 2.93  18 2.93  26 2.97
  17  0.444  0.778  0.103-  24 2.90  27 2.93   9 2.93   2 2.93   8 2.93  16 2.93  10 2.93  15 2.93
                            11 2.93  14 2.93  18 2.93  26 2.97
  18  0.778  0.778  0.103-   3 2.93   7 2.93   9 2.93  11 2.93  13 2.93  12 2.93  15 2.93  16 2.93
                            17 2.93  27 2.95  25 2.95  22 2.95
  19  0.891  0.221  0.208-  33 2.90  26 2.91  20 2.91  22 2.91  25 2.91  24 2.95  21 2.95  10 2.95
                            15 2.97  12 2.97  28 3.02  31 3.02
  20  0.221  0.221  0.208-  32 2.90  26 2.91  19 2.91  22 2.91  27 2.91  21 2.95  23 2.95  10 2.95
                            11 2.97  13 2.97  29 3.02  31 3.02
  21  0.557  0.220  0.205-  11 2.90  12 2.90  14 2.92  27 2.92  25 2.92  32 2.93  33 2.93  20 2.95
                            19 2.95  30 2.96  23 2.96  24 2.96
  22  0.890  0.552  0.207-  31 2.90  19 2.91  20 2.91  24 2.92  23 2.92  15 2.93  13 2.93  36 2.94
                            34 2.94  18 2.95  27 2.98  25 2.98
  23  0.220  0.557  0.205-  16 2.90  13 2.90  14 2.92  25 2.92  22 2.92  35 2.93  32 2.93  26 2.95
                            20 2.95  34 2.96  21 2.96  24 2.96
  24  0.557  0.557  0.205-  15 2.90  17 2.90  14 2.92  22 2.92  27 2.92  33 2.93  35 2.93  19 2.95
                            26 2.95  36 2.96  21 2.96  23 2.96
  25  0.890  0.890  0.207-  28 2.90  19 2.91  26 2.91  23 2.92  21 2.92  16 2.93  12 2.93  30 2.94
                            34 2.94  18 2.95  27 2.98  22 2.98
  26  0.221  0.891  0.208-  35 2.90  20 2.91  19 2.91  27 2.91  25 2.91  23 2.95  24 2.95  10 2.95
                            17 2.97  16 2.97  28 3.02  29 3.02
  27  0.552  0.890  0.207-  29 2.90  20 2.91  26 2.91  21 2.92  24 2.92  11 2.93  17 2.93  36 2.94
                            30 2.94  18 2.95  25 2.98  22 2.98
  28  0.990  0.990  0.314-  37 2.14  30 2.80  34 2.80  25 2.90  35 2.97  33 2.97  19 3.02  26 3.02
                            31 3.21  29 3.21
  29  0.354  0.990  0.314-  37 2.14  36 2.80  30 2.80  27 2.90  35 2.97  32 2.97  26 3.02  20 3.02
                            28 3.21  31 3.21
  30  0.667  0.999  0.310-  28 2.80  29 2.80  34 2.92  36 2.92  25 2.94  27 2.94  33 2.94  32 2.94
                            21 2.96
  31  0.990  0.354  0.314-  37 2.14  36 2.80  34 2.80  22 2.90  33 2.97  32 2.97  19 3.02  20 3.02
                            28 3.21  29 3.21
  32  0.335  0.335  0.308-  33 2.88  35 2.88  20 2.90  21 2.93  23 2.93  34 2.94  30 2.94  29 2.97
                            31 2.97
  33  0.663  0.335  0.308-  32 2.88  35 2.88  19 2.90  24 2.93  21 2.93  30 2.94  36 2.94  31 2.97
                            28 2.97
  34  0.999  0.667  0.310-  31 2.80  28 2.80  30 2.92  36 2.92  25 2.94  22 2.94  35 2.94  32 2.94
                            23 2.96
  35  0.335  0.663  0.308-  33 2.88  32 2.88  26 2.90  23 2.93  24 2.93  34 2.94  36 2.94  28 2.97
                            29 2.97
  36  0.667  0.667  0.310-  29 2.80  31 2.80  30 2.92  34 2.92  27 2.94  22 2.94  33 2.94  35 2.94
                            24 2.96
  37  0.111  0.111  0.360-  29 2.14  31 2.14  28 2.14

IMPORTANT INFORMATION: All symmetrisations will be switched off!
NOSYMM: (Re-)initialisation of all symmetry stuff for point group C_1.

                                     Primitive cell

  volume of cell :    1556.3341

  direct lattice vectors                    reciprocal lattice vectors
     8.803479426  0.000000000  0.000000000     0.113591451 -0.065582055  0.000000000
     4.401739713  7.624036824  0.000000000     0.000000000  0.131164109  0.000000000
     0.000000000  0.000000000 23.188010851     0.000000000  0.000000000  0.043125735

  length of vectors
     8.803479426  8.803479426 23.188010851     0.131164109  0.131164109  0.043125735

  position of ions in fractional coordinates (direct lattice)
     0.000000000  0.000000000  0.000000000
     0.333333333  0.000000000  0.000000000
     0.666666667  0.000000000  0.000000000
     0.000000000  0.333333333  0.000000000
     0.333333333  0.333333333  0.000000000
     0.666666667  0.333333333  0.000000000
     0.000000000  0.666666667  0.000000000
     0.333333333  0.666666667  0.000000000
     0.666666667  0.666666667  0.000000000
     0.111111111  0.111111111  0.103329416
     0.444444444  0.111111111  0.103329416
     0.777777778  0.111111111  0.103329416
     0.111111111  0.444444444  0.103329416
     0.444444444  0.444444444  0.103329416
     0.777777778  0.444444444  0.103329416
     0.111111111  0.777777778  0.103329416
     0.444444444  0.777777778  0.103329416
     0.777777778  0.777777778  0.103329416
     0.890984935  0.221174204  0.208108527
     0.221174294  0.221174088  0.208108611
     0.556514621  0.220301005  0.205265900
     0.890480548  0.552372085  0.206793788
     0.220300921  0.556517695  0.205265926
     0.556517724  0.556514693  0.205265907
     0.890480565  0.890480506  0.206793740
     0.221174288  0.890984998  0.208108531
     0.552372470  0.890480477  0.206793754
     0.989656244  0.989656373  0.313754864
     0.354021668  0.989655507  0.313755106
     0.667270107  0.998793687  0.310023560
     0.989655370  0.354021724  0.313755102
     0.335338157  0.335338091  0.308357141
     0.662656532  0.335338249  0.308357140
     0.998793884  0.667269918  0.310023580
     0.335337870  0.662656942  0.308357199
     0.667269661  0.667269866  0.310023498
     0.111111357  0.111111420  0.360376780

  ion indices of the primitive-cell ions
   primitive index   ion index
                 1           1
                 2           2
                 3           3
                 4           4
                 5           5
                 6           6
                 7           7
                 8           8
                 9           9
                10          10
                11          11
                12          12
                13          13
                14          14
                15          15
                16          16
                17          17
                18          18
                19          19
                20          20
                21          21
                22          22
                23          23
                24          24
                25          25
                26          26
                27          27
                28          28
                29          29
                30          30
                31          31
                32          32
[...]
  the test charge radii are     1.2098  0.7215
  (the norm of the test charge is              1.0000)
       1 -72.6150       2 -72.6150       3 -72.5835       4 -72.6150       5 -72.6077
       6 -72.6077       7 -72.5835       8 -72.6077       9 -72.5835      10 -72.9746
      11 -72.9436      12 -72.9436      13 -72.9436      14 -72.9653      15 -72.9436
      16 -72.9436      17 -72.9436      18 -72.9330      19 -72.8852      20 -72.8852
      21 -72.9330      22 -72.9193      23 -72.9330      24 -72.9330      25 -72.9193
      26 -72.8852      27 -72.9193      28 -72.6696      29 -72.6696      30 -72.5873
      31 -72.6696      32 -72.6040      33 -72.6040      34 -72.5873      35 -72.6040
      36 -72.5873      37 -75.0212

 E-fermi :   0.4516     XC(G=0):  -5.8904     alpha+bet : -5.5376

 val. band max:        0.4462707347   @ k =   0.2500   0.2500   0.0000
 cond. band min:       0.4644781476   @ k =  -0.2500   0.2500   0.0000
 fundamental gap:      0.0182074129
 Fermi energy:         0.4516164463

 k-point     1 :       0.2500    0.2500    0.0000
  band No.  band energies     occupation
      1     -17.2637      2.00000
      2      -8.1992      2.00000
      3      -7.0794      2.00000
      4      -6.8547      2.00000
      5      -6.3831      2.00000
      6      -6.3557      2.00000
      7      -6.1412      2.00000
      8      -6.0853      2.00000
      9      -6.0624      2.00000
     10      -5.9905      2.00000
     11      -5.9885      2.00000
     12      -5.9499      2.00000
     13      -5.8381      2.00000
     14      -5.7779      2.00000
     15      -5.6960      2.00000
     16      -5.6722      2.00000
     17      -5.6417      2.00000
     18      -5.5393      2.00000
     19      -5.4881      2.00000
     20      -5.4700      2.00000
     21      -5.3791      2.00000
     22      -5.3487      2.00000
     23      -5.3458      2.00000
     24      -5.2841      2.00000
     25      -5.2623      2.00000
     26      -5.2471      2.00000
     27      -5.2466      2.00000
     28      -5.2410      2.00000
     29      -5.2200      2.00000
     30      -5.1894      2.00000
     31      -5.1846      2.00000
     32      -5.1092      2.00000
     33      -5.0764      2.00000
     34      -5.0345      2.00000
     35      -5.0102      2.00000
     36      -4.9713      2.00000
     37      -4.9047      2.00000
     38      -4.8818      2.00000
     39      -4.8692      2.00000
     40      -4.8394      2.00000
     41      -4.7959      2.00000
     42      -4.7150      2.00000
     43      -4.6983      2.00000
     44      -4.6812      2.00000
     45      -4.6204      2.00000
     46      -4.6076      2.00000
     47      -4.5926      2.00000
     48      -4.5608      2.00000
     49      -4.5036      2.00000
     50      -4.4582      2.00000
     51      -4.3936      2.00000
     52      -4.3853      2.00000
     53      -4.3623      2.00000
     54      -4.3289      2.00000
     55      -4.3225      2.00000
     56      -4.2524      2.00000
     57      -4.2350      2.00000
     58      -4.2119      2.00000
     59      -4.1518      2.00000
     60      -4.1450      2.00000
[...]
    228       5.0917      0.00000
    229       5.1878      0.00000
    230       5.2159      0.00000
    231       5.3035      0.00000
    232       5.5604      0.00000
    233       5.6416      0.00000
    234       5.7072      0.00000
    235       5.8541      0.00000
    236       5.9639      0.00000
    237       6.0974      0.00000
    238       6.1069      0.00000
    239       6.1811      0.00000
    240       6.6133      0.00000
    241       6.7953      0.00000
    242       6.8391      0.00000

[...]

 k-point     6 :      -0.2500    0.5000    0.0000
  band No.  band energies     occupation
      1     -17.2635      2.00000
      2      -7.8145      2.00000
      3      -7.1412      2.00000
      4      -7.1033      2.00000
      5      -6.7188      2.00000
      6      -6.1930      2.00000
      7      -6.1097      2.00000
      8      -5.9323      2.00000
      9      -5.9202      2.00000
     10      -5.8131      2.00000
     11      -5.7934      2.00000
     12      -5.7592      2.00000
     13      -5.7572      2.00000
     14      -5.7434      2.00000
     15      -5.7231      2.00000
     16      -5.5910      2.00000
     17      -5.5323      2.00000
     18      -5.5076      2.00000
     19      -5.5048      2.00000
     20      -5.4858      2.00000
     21      -5.4391      2.00000
     22      -5.3888      2.00000
     23      -5.3433      2.00000
     24      -5.3158      2.00000
     25      -5.2867      2.00000
     26      -5.2804      2.00000
     27      -5.2624      2.00000
     28      -5.2524      2.00000
     29      -5.2109      2.00000
     30      -5.1833      2.00000
     31      -5.1550      2.00000
     32      -5.1426      2.00000
     33      -5.0908      2.00000
     34      -5.0626      2.00000
     35      -5.0090      2.00000
     36      -4.9684      2.00000
     37      -4.9545      2.00000
     38      -4.9364      2.00000
     39      -4.8422      2.00000
     40      -4.8184      2.00000
     41      -4.7045      2.00000
     42      -4.6746      2.00000
     43      -4.6586      2.00000
     44      -4.6363      2.00000
     45      -4.6171      2.00000
     46      -4.5885      2.00000
     47      -4.5630      2.00000
     48      -4.5543      2.00000
     49      -4.5070      2.00000
     50      -4.4683      2.00000
     51      -4.4390      2.00000
     52      -4.4042      2.00000
     53      -4.3811      2.00000
     54      -4.3659      2.00000
     55      -4.3461      2.00000
     56      -4.3339      2.00000
     57      -4.3078      2.00000
     58      -4.2756      2.00000
     59      -4.2554      2.00000
     60      -4.2275      2.00000
[...]
    228       4.7242      0.00000
    229       4.9680      0.00000
    230       5.3195      0.00000
    231       5.4180      0.00000
    232       5.5499      0.00000
    233       5.7306      0.00000
    234       5.8117      0.00000
    235       5.8689      0.00000
    236       5.8918      0.00000
    237       5.9275      0.00000
    238       6.0086      0.00000
    239       6.0559      0.00000
    240       6.1658      0.00000
    241       6.6265      0.00000
    242       6.6933      0.00000

 soft charge-density along one line, spin component           1
         0         1         2         3         4         5         6         7         8         9
 total charge-density along one line

------------------------ aborting loop because EDIFF is reached ----------------------------------------

  FORCE on cell =-STRESS in cart. coord.  units (eV):
  Direction    XX          YY          ZZ          XY          YZ          ZX
  Alpha Z   990.63433   990.63433   990.63433
  Ewald  136075.97024136075.97245************    -0.00173     0.00031     0.00062
  Hartree144691.50241144691.50358************    -0.00082     0.00027     0.00043
  E(xc)   -1807.49337 -1807.49337 -1814.86609    -0.00001     0.00000     0.00000
  Local  ************************293605.87565     0.00229    -0.00057    -0.00107
  n-local   -73.91133   -73.91124   -54.00390     0.00011     0.00001     0.00006
  augment  2439.96787  2439.96779  2456.98780     0.00005    -0.00001     0.00000
  Kinetic  5627.99010  5627.98993  5685.01647     0.00004    -0.00003    -0.00001
  Fock        0.00000     0.00000     0.00000     0.00000     0.00000     0.00000
  Total     -15.37706   -15.37701    -0.91316    -0.00007    -0.00001     0.00004
  in kB     -15.83001   -15.82995    -0.94005    -0.00007    -0.00001     0.00004

 VOLUME and BASIS-vectors are now :
  energy-cutoff  :      400.00
  volume of cell :     1556.33
      direct lattice vectors                 reciprocal lattice vectors
     8.803479426  0.000000000  0.000000000     0.113591451 -0.065582055  0.000000000
     4.401739713  7.624036824  0.000000000     0.000000000  0.131164109  0.000000000
     0.000000000  0.000000000 23.188010851     0.000000000  0.000000000  0.043125735

  length of vectors
     8.803479426  8.803479426 23.188010851     0.131164109  0.131164109  0.043125735

 FORCES acting on ions
    electron-ion (+dipol)            ewald-force                    non-local-force                 convergence-correction
   -.287E+00 -.166E+00 0.259E+04   0.348E+00 0.201E+00 -.259E+04   -.414E-01 -.239E-01 -.435E+00   -.194E-02 -.109E-02 0.378E-01
   0.287E+00 -.166E+00 0.259E+04   -.348E+00 0.201E+00 -.259E+04   0.414E-01 -.239E-01 -.435E+00   0.194E-02 -.108E-02 0.377E-01
   0.188E-04 0.167E+00 0.260E+04   0.433E-05 -.278E+00 -.259E+04   0.104E-04 0.945E-01 -.318E+00   -.311E-04 -.347E-02 0.389E-01
   -.608E-04 0.331E+00 0.259E+04   0.418E-04 -.402E+00 -.259E+04   -.281E-05 0.478E-01 -.435E+00   0.129E-04 0.220E-02 0.377E-01
   0.489E+00 0.283E+00 0.260E+04   -.515E+00 -.297E+00 -.260E+04   0.238E-01 0.137E-01 -.256E+00   -.787E-03 -.485E-03 0.379E-01
   -.489E+00 0.283E+00 0.260E+04   0.515E+00 -.297E+00 -.260E+04   -.238E-01 0.137E-01 -.256E+00   0.787E-03 -.478E-03 0.379E-01
   0.145E+00 -.834E-01 0.260E+04   -.241E+00 0.139E+00 -.259E+04   0.818E-01 -.472E-01 -.318E+00   -.303E-02 0.174E-02 0.389E-01
   -.215E-04 -.565E+00 0.260E+04   0.523E-05 0.595E+00 -.260E+04   -.247E-05 -.275E-01 -.256E+00   0.194E-04 0.918E-03 0.379E-01
   -.144E+00 -.835E-01 0.260E+04   0.241E+00 0.139E+00 -.259E+04   -.818E-01 -.473E-01 -.318E+00   0.301E-02 0.178E-02 0.389E-01
   -.189E-03 -.108E-03 0.898E+03   0.177E-03 0.105E-03 -.898E+03   0.121E-04 0.976E-05 -.312E+00   0.100E-04 -.117E-05 0.139E+00
   0.497E+01 0.412E+00 0.903E+03   -.487E+01 -.398E+00 -.903E+03   -.102E+00 0.279E-02 -.259E+00   0.457E-04 -.245E-02 0.140E+00
   -.497E+01 0.411E+00 0.903E+03   0.487E+01 -.398E+00 -.903E+03   0.102E+00 0.278E-02 -.259E+00   -.612E-04 -.245E-02 0.140E+00
   0.284E+01 0.410E+01 0.903E+03   -.278E+01 -.402E+01 -.903E+03   -.488E-01 -.901E-01 -.259E+00   -.208E-02 0.127E-02 0.140E+00
   0.131E-03 -.630E-04 0.906E+03   -.125E-03 0.662E-04 -.906E+03   0.315E-05 0.175E-05 -.332E+00   -.815E-05 -.179E-06 0.140E+00
   -.284E+01 0.410E+01 0.903E+03   0.278E+01 -.402E+01 -.903E+03   0.488E-01 -.901E-01 -.259E+00   0.209E-02 0.128E-02 0.140E+00
   -.213E+01 -.451E+01 0.903E+03   0.209E+01 0.441E+01 -.903E+03   0.536E-01 0.873E-01 -.259E+00   -.214E-02 0.116E-02 0.140E+00
   0.213E+01 -.451E+01 0.903E+03   -.209E+01 0.441E+01 -.903E+03   -.536E-01 0.873E-01 -.259E+00   0.215E-02 0.118E-02 0.140E+00
   -.368E-04 0.134E-03 0.898E+03   0.586E-04 -.154E-03 -.898E+03   0.661E-05 0.413E-05 -.538E+00   -.201E-04 0.119E-04 0.139E+00
   -.111E+01 0.643E+00 -.825E+03   0.124E+01 -.716E+00 0.824E+03   -.130E+00 0.750E-01 0.233E+00   0.701E-02 -.404E-02 0.180E+00
   0.111E+01 0.640E+00 -.825E+03   -.124E+01 -.713E+00 0.824E+03   0.130E+00 0.750E-01 0.233E+00   -.701E-02 -.404E-02 0.180E+00
   -.298E-02 -.478E+01 -.785E+03   0.294E-02 0.463E+01 0.784E+03   0.818E-04 0.144E+00 0.570E+00   -.681E-05 -.414E-02 0.168E+00
   -.247E-02 -.100E+02 -.795E+03   0.245E-02 0.950E+01 0.794E+03   0.360E-04 0.523E+00 -.433E-01   0.657E-05 -.171E-02 0.173E+00
   -.414E+01 0.239E+01 -.785E+03   0.401E+01 -.232E+01 0.784E+03   0.125E+00 -.722E-01 0.570E+00   -.361E-02 0.206E-02 0.168E+00
   0.414E+01 0.239E+01 -.785E+03   -.401E+01 -.231E+01 0.784E+03   -.125E+00 -.720E-01 0.570E+00   0.359E-02 0.206E-02 0.168E+00
   0.868E+01 0.501E+01 -.795E+03   -.823E+01 -.475E+01 0.794E+03   -.453E+00 -.262E+00 -.433E-01   0.144E-02 0.833E-03 0.173E+00
   -.189E-02 -.128E+01 -.825E+03   0.188E-02 0.143E+01 0.824E+03   0.401E-04 -.150E+00 0.233E+00   -.445E-05 0.811E-02 0.180E+00
   -.868E+01 0.501E+01 -.795E+03   0.822E+01 -.475E+01 0.794E+03   0.453E+00 -.262E+00 -.433E-01   -.148E-02 0.854E-03 0.173E+00
   0.615E+02 0.355E+02 -.248E+04   -.630E+02 -.364E+02 0.248E+04   0.153E+01 0.886E+00 -.543E-01   0.319E-01 0.184E-01 0.867E-01
   -.615E+02 0.355E+02 -.248E+04   0.630E+02 -.364E+02 0.248E+04   -.153E+01 0.886E+00 -.543E-01   -.319E-01 0.184E-01 0.867E-01
   -.161E-03 -.133E+02 -.253E+04   0.177E-03 0.133E+02 0.253E+04   -.119E-04 0.198E-01 0.172E+00   -.110E-04 -.335E-02 0.745E-01
   -.854E-03 -.710E+02 -.248E+04   0.817E-03 0.728E+02 0.248E+04   0.121E-04 -.177E+01 -.543E-01   0.292E-04 -.368E-01 0.867E-01
   -.158E+02 -.910E+01 -.251E+04   0.164E+02 0.947E+01 0.251E+04   -.607E+00 -.350E+00 0.748E+00   -.142E-01 -.816E-02 0.788E-01
   0.158E+02 -.910E+01 -.251E+04   -.164E+02 0.947E+01 0.251E+04   0.607E+00 -.350E+00 0.748E+00   0.142E-01 -.817E-02 0.788E-01
   -.115E+02 0.665E+01 -.253E+04   0.115E+02 -.664E+01 0.253E+04   0.171E-01 -.988E-02 0.172E+00   -.291E-02 0.164E-02 0.744E-01
   -.123E-02 0.182E+02 -.251E+04   0.120E-02 -.189E+02 0.251E+04   0.317E-04 0.701E+00 0.748E+00   0.142E-04 0.163E-01 0.788E-01
   0.115E+02 0.665E+01 -.253E+04   -.115E+02 -.664E+01 0.253E+04   -.171E-01 -.989E-02 0.172E+00   0.292E-02 0.167E-02 0.745E-01
   -.142E-03 -.192E-03 -.169E+04   0.112E-03 0.135E-03 0.171E+04   0.121E-04 0.519E-04 -.226E+02   0.115E-04 0.227E-04 -.186E-01
   -.314E-04 -.777E-04 0.196E+02   0.430E-13 -.249E-13 0.568E-11   0.719E-04 0.513E-04 -.235E+02   -.453E-04 0.356E-04 0.387E+01

 POSITION                                       TOTAL-FORCE (eV/Angst)
      0.00000      0.00000      0.00000         0.017821      0.010290     -0.055416
      2.93449      0.00000      0.00000        -0.017831      0.010287     -0.055408
      5.86899      0.00000      0.00000         0.000002     -0.020156     -0.074531
      1.46725      2.54135      0.00000        -0.000009     -0.020587     -0.055420
      4.40174      2.54135      0.00000        -0.002877     -0.001666     -0.067119
      7.33623      2.54135      0.00000         0.002878     -0.001657     -0.067123
      2.93449      5.08269      0.00000        -0.017458      0.010086     -0.074530
      5.86899      5.08269      0.00000         0.000001      0.003325     -0.067109
      8.80348      5.08269      0.00000         0.017454      0.010070     -0.074529
      1.46725      0.84712      2.39600         0.000010      0.000005      0.149522
      4.40174      0.84712      2.39600         0.001712      0.013686      0.072033
      7.33623      0.84712      2.39600        -0.001726      0.013692      0.072054
      2.93449      3.38846      2.39600         0.012723     -0.005354      0.072063
      5.86899      3.38846      2.39600         0.000001      0.000005      0.023223
      8.80348      3.38846      2.39600        -0.012711     -0.005357      0.072031
      4.40174      5.92981      2.39600         0.010998     -0.008333      0.072031
      7.33623      5.92981      2.39600        -0.010997     -0.008334      0.072059
     10.27073      5.92981      2.39600         0.000009     -0.000004      0.255712
      8.81732      1.68624      4.82562         0.004971     -0.002896     -0.007788
      2.92065      1.68624      4.82562        -0.004998     -0.002862     -0.007784
      5.86897      1.67958      4.75971         0.000036     -0.004262     -0.006602
     10.27073      4.21131      4.79514         0.000028     -0.005057     -0.022771
      4.38906      4.24291      4.75971        -0.003715      0.002094     -0.006605
      7.34893      4.24289      4.75971         0.003668      0.002176     -0.006596
     11.75899      6.78906      4.79514         0.004374      0.002552     -0.022762
      5.86899      6.79290      4.82562         0.000023      0.005740     -0.007795
      8.78246      6.78906      4.79514        -0.004390      0.002510     -0.022767
     13.06863      7.54518      7.27535        -0.000192     -0.000102      0.000606
      7.47283      7.54517      7.27536         0.000199     -0.000115      0.000598
     10.27073      7.61484      7.18883        -0.000007     -0.004092     -0.016516
     10.27072      2.69907      7.27536         0.000004      0.000215      0.000612
      4.42821      2.55663      7.15019         0.028012      0.016184     -0.038827
      7.30975      2.55663      7.15019        -0.028021      0.016164     -0.038826
     11.73001      5.08729      7.18883        -0.003550      0.002044     -0.016514
      5.86898      5.05212      7.15019         0.000018     -0.032355     -0.038828
      8.81144      5.08729      7.18883         0.003546      0.002048     -0.016514
      1.46725      0.84712      8.35642        -0.000007      0.000017      0.006140
    total drift:                               -0.000005      0.000009      0.001909

  FREE ENERGIE OF THE ION-ELECTRON SYSTEM (eV)
  free  energy   TOTEN  =      -115.20386524 eV

  energy  without entropy=     -115.17121644  energy(sigma->0) =     -115.19298231

 vacuum level on the upper side and lower side of the slab         5.846         5.476