 vasp.6.4.3 19Mar24 (build Oct  2 2024 09:01:45) complex
 executed on             LinuxGNU date 2025.02.22  13:34:58

 INCAR:
   ENCUT = 400.000000
   SIGMA = 0.100000
   EDIFF = 1.00e-04
   EDIFFG = -3.00e-02
   ALGO = Fast
   GGA = PE
   PREC = Accurate
   IBRION = -1
   ICHARG = 2
   IDIPOL = 3
   ISMEAR = 1
   ISYM = 0
   NPAR = 2
   LCHARG = .FALSE.
   LDIPOL = .TRUE.
   LWAVE = .FALSE.
   LREAL = Auto

 POTCAR:    PAW_PBE Pd 04Jan2005
 POTCAR:    PAW_PBE H 15Jun2001
 POTCAR:    PAW_PBE S 06Sep2000
 POTCAR:    PAW_PBE Pd 04Jan2005
   VRHFIN =Pd : s1 d9

   TITEL  = PAW_PBE Pd 04Jan2005
   POMASS =  106.420; ZVAL   =   10.000    mass and valenz
   ENMAX  =  250.925; ENMIN  =  188.194 eV

   TITEL  = PAW_PBE H 15Jun2001
   POMASS =    1.000; ZVAL   =    1.000    mass and valenz
   ENMAX  =  250.000; ENMIN  =  200.000 eV

   TITEL  = PAW_PBE S 06Sep2000
   POMASS =   32.066; ZVAL   =    6.000    mass and valenz
   ENMAX  =  258.689; ENMIN  =  194.016 eV

 Optimization of the real space projectors (new method)

 maximal supplied QI-value         = 14.36
 optimisation between [QCUT,QGAM] = [ 10.20, 20.39] = [ 29.12,116.47] Ry
 Optimized for a Real-space Cutoff    1.55 Angstroem

   l    n(q)    QCUT    max X(q) W(low)/X(q) W(high)/X(q)  e(spline)
   2      9    10.197    59.108    0.12E-03    0.40E-04    0.11E-06
   2      9    10.197    58.101    0.12E-03    0.39E-04    0.12E-06
   0      9    10.197   102.235    0.41E-04    0.86E-05    0.83E-07
   0      9    10.197    58.388    0.37E-04    0.79E-05    0.78E-07
   1      9    10.197    22.191    0.25E-03    0.13E-03    0.84E-07
   1      9    10.197    15.590    0.21E-03    0.11E-03    0.74E-07
 Optimization of the real space projectors (new method)

[...]

   l    n(q)    QCUT    max X(q) W(low)/X(q) W(high)/X(q)  e(spline)
   0      8     9.919    19.460    0.16E-03    0.20E-03    0.36E-06
   0      8     9.919    12.209    0.16E-03    0.20E-03    0.35E-06
   1      8     9.919     4.655    0.19E-03    0.46E-03    0.40E-06
 Optimization of the real space projectors (new method)

 maximal supplied QI-value         = 19.84
 optimisation between [QCUT,QGAM] = [ 10.12, 20.44] = [ 28.68,116.96] Ry
 Optimized for a Real-space Cutoff    1.42 Angstroem

   l    n(q)    QCUT    max X(q) W(low)/X(q) W(high)/X(q)  e(spline)
   0      9    10.119   187.594    0.52E-04    0.93E-04    0.64E-07
   0      9    10.119   164.243    0.51E-04    0.92E-04    0.63E-07
   1      8    10.119    67.533    0.16E-03    0.17E-03    0.23E-06
   1      8    10.119    50.729    0.16E-03    0.16E-03    0.23E-06
  PAW_PBE Pd 04Jan2005                  :
  PAW_PBE H 15Jun2001                   :
  PAW_PBE S 06Sep2000                   :

 POSCAR: Pd H  S
  positions in cartesian coordinates

 exchange-correlation table for PE
   RHO(1)=    0.500       N(1)  =     2000
   RHO(2)=  100.500       N(2)  =     4000

 ion  position               nearest neighbor table
   1  0.167  0.167  0.000-   3 2.79   7 2.79   4 2.79   2 2.79  10 2.79  11 2.79  13 2.79  14 2.79

   2  0.500  0.167  0.000-   8 2.79   3 2.79   5 2.79   1 2.79  11 2.79  12 2.79  14 2.79  15 2.79

[...]

  10  0.000  0.000  0.099-  25 2.76  21 2.76  27 2.76  16 2.79  11 2.79  12 2.79  13 2.79   9 2.79
                             1 2.79   3 2.79   7 2.79  19 2.80
  11  0.333  0.000  0.099-  26 2.77  25 2.77  20 2.77  19 2.78  12 2.79  14 2.79  17 2.79  10 2.79
                             2 2.79   8 2.79   7 2.79   1 2.79
  12  0.667  0.000  0.099-  21 2.76  27 2.76  26 2.76  11 2.79  10 2.79  15 2.79  18 2.79   8 2.79
                             2 2.79   9 2.79   3 2.79  20 2.79
  13  0.000  0.333  0.099-  24 2.77  21 2.77  22 2.77  19 2.79  16 2.79  15 2.79  10 2.79  14 2.79
                             4 2.79   6 2.79   1 2.79   3 2.79
  14  0.333  0.333  0.099-  23 2.76  20 2.77  22 2.77  19 2.78  15 2.79  17 2.79  11 2.79  13 2.79
                             5 2.79   4 2.79   2 2.79   1 2.79
  15  0.667  0.333  0.099-  24 2.76  21 2.77  23 2.78  18 2.79  14 2.79  13 2.79  12 2.79   5 2.79
                             6 2.79   2 2.79   3 2.79  20 2.79
  16  0.000  0.667  0.099-  25 2.76  27 2.76  24 2.76  13 2.79  10 2.79  17 2.79  18 2.79   6 2.79
                             4 2.79   9 2.79   7 2.79  22 2.79
  17  0.333  0.667  0.099-  26 2.76  25 2.77  23 2.78  18 2.79  14 2.79  11 2.79  16 2.79   5 2.79
                             8 2.79   4 2.79   7 2.79  22 2.79
  18  0.667  0.667  0.099-  27 2.76  26 2.76  24 2.76  17 2.79  15 2.79  12 2.79  16 2.79   5 2.79
                             8 2.79   6 2.79   9 2.79  23 2.80
  19  0.168  0.168  0.198-  20 2.76  22 2.76  31 2.76  29 2.76  14 2.78  28 2.78  11 2.78  13 2.79
                            10 2.80  25 2.80  21 2.80  32 2.85
  20  0.498  0.167  0.198-  33 2.75  19 2.76  23 2.76  29 2.76  14 2.77  11 2.77  30 2.78  15 2.79
                            12 2.79  26 2.80  21 2.80  32 2.87
  21  0.833  0.166  0.196-  12 2.76  31 2.76  10 2.76  33 2.76  15 2.77  13 2.77  28 2.78  30 2.78
                            27 2.78  24 2.80  19 2.80  20 2.80
  22  0.167  0.498  0.198-  35 2.75  19 2.76  31 2.76  23 2.76  14 2.77  13 2.77  34 2.78  17 2.79
                            16 2.79  24 2.80  25 2.80  32 2.88
  23  0.498  0.498  0.197-  35 2.75  33 2.75  14 2.76  20 2.76  22 2.76  15 2.78  17 2.78  36 2.78
                            18 2.80  24 2.80  26 2.80  32 2.88
  24  0.833  0.500  0.196-  18 2.76  31 2.76  15 2.76  16 2.76  33 2.77  13 2.77  36 2.77  34 2.78
                            27 2.78  22 2.80  21 2.80  23 2.80
  25  0.166  0.833  0.196-  16 2.76  29 2.76  10 2.76  35 2.77  17 2.77  11 2.77  28 2.78  34 2.78
                            27 2.78  26 2.80  19 2.80  22 2.80
  26  0.500  0.833  0.196-  18 2.76  29 2.76  17 2.76  12 2.76  11 2.77  35 2.77  36 2.77  30 2.78
                            27 2.78  20 2.80  25 2.80  23 2.80
  27  0.833  0.833  0.196-  18 2.76  12 2.76  16 2.76  10 2.76  28 2.77  34 2.78  30 2.78  36 2.78
                            21 2.78  25 2.78  24 2.78  26 2.78
  28  0.998  0.998  0.295-  30 2.77  34 2.77  27 2.77  21 2.78  25 2.78  19 2.78  31 2.80  29 2.80

[...]

  32  0.332  0.331  0.303-  39 2.30  29 2.80  33 2.80  31 2.81  35 2.81  19 2.85  20 2.87  22 2.88
                            23 2.88
  33  0.667  0.333  0.294-  20 2.75  23 2.75  31 2.76  21 2.76  24 2.77  36 2.79  30 2.79  32 2.80

[...]

  37  0.490  0.338  0.432-  39 1.36
  38  0.324  0.502  0.428-  39 1.36
  39  0.330  0.341  0.419-  37 1.36  38 1.36  32 2.30

IMPORTANT INFORMATION: All symmetrisations will be switched off!
NOSYMM: (Re-)initialisation of all symmetry stuff for point group C_1.

                                     Primitive cell

  volume of cell :    1390.8369

  direct lattice vectors                    reciprocal lattice vectors
     8.358002154  0.000000000  0.000000000     0.119645817  0.000000000  0.000000000
     0.000000000  8.358002154  0.000000000     0.000000000  0.119645817  0.000000000
     0.000000000  0.000000000 19.910000000     0.000000000  0.000000000  0.050226017

  length of vectors
     8.358002154  8.358002154 19.910000000     0.119645817  0.119645817  0.050226017

  position of ions in fractional coordinates (direct lattice)
     0.166666667  0.166666667  0.000000000
     0.500000000  0.166666667  0.000000000
     0.833333333  0.166666667  0.000000000
     0.166666667  0.500000000  0.000000000
     0.500000000  0.500000000  0.000000000
     0.833333333  0.500000000  0.000000000
     0.166666667  0.833333333  0.000000000
     0.500000000  0.833333333  0.000000000
     0.833333333  0.833333333  0.000000000
     0.000000000  0.000000000  0.098945254
     0.333333333  0.000000000  0.098945254
     0.666666667  0.000000000  0.098945254
     0.000000000  0.333333333  0.098945254
     0.333333333  0.333333333  0.098945254
     0.666666667  0.333333333  0.098945254
     0.000000000  0.666666667  0.098945254
     0.333333333  0.666666667  0.098945254
     0.666666667  0.666666667  0.098945254
     0.167917955  0.167767522  0.197835172
     0.497683661  0.167381379  0.197519874
     0.832919038  0.165708557  0.196307987
     0.167334753  0.497750034  0.197500550
     0.497970314  0.497831879  0.197290063
     0.832828813  0.500437952  0.196270736
     0.165679035  0.832894276  0.196306744
     0.500399482  0.832805355  0.196264843
     0.833056671  0.833091300  0.196064772
     0.998409355  0.998454283  0.294844839
     0.333004614  0.996564832  0.294086011
     0.666870007  0.998600709  0.294803269
     0.997107685  0.332992444  0.294041538
     0.332120602  0.331014808  0.303210501
     0.666821913  0.332729601  0.293715369
     0.998577737  0.666893892  0.294790285
     0.332726913  0.666377505  0.293704789
     0.666738901  0.666777922  0.294656775
     0.489940486  0.338149566  0.431760208
     0.323729106  0.502091686  0.428107146
     0.329953755  0.340749558  0.418899270

  ion indices of the primitive-cell ions
   primitive index   ion index
                 1           1
                 2           2
                 3           3
                 4           4
                 5           5
                 6           6
                 7           7
                 8           8
                 9           9
                10          10
                11          11
                12          12
                13          13
                14          14
                15          15
                16          16
                17          17
                18          18
                19          19
                20          20
                21          21
                22          22
                23          23
                24          24
                25          25
                26          26
                27          27
                28          28
                29          29
                30          30
                31          31
                32          32
                33          33
                34          34
                35          35
                36          36
                37          37
                38          38
                39          39

 KPOINTS: KPOINTS created by Atomic Simulation Env

Automatic generation of k-mesh.
 Grid dimensions read from file:
 generate k-points for:    2    2    1

 Generating k-lattice:

  Cartesian coordinates                     Fractional coordinates (reciprocal lattice)
     0.059822909  0.000000000  0.000000000     0.500000000  0.000000000  0.000000000
     0.000000000  0.059822909  0.000000000     0.000000000  0.500000000  0.000000000
     0.000000000  0.000000000  0.050226017     0.000000000  0.000000000  1.000000000

  Length of vectors
     0.059822909  0.059822909  0.050226017

  Shift w.r.t. Gamma in fractional coordinates (k-lattice)
     0.500000000  0.500000000  0.000000000

 Subroutine IBZKPT returns following result:

 Found      2 irreducible k-points:

 Following reciprocal coordinates:
            Coordinates               Weight
  0.250000  0.250000  0.000000      2.000000
 -0.250000  0.250000  0.000000      2.000000

 Following cartesian coordinates:
[...]
      21 -79.2750      22 -79.2306      23 -79.2353      24 -79.2749      25 -79.2748
      26 -79.2757      27 -79.3179      28 -78.7429      29 -78.7733      30 -78.7461
      31 -78.7727      32 -79.2577      33 -78.7885      34 -78.7456      35 -78.7904
      36 -78.7474      37 -38.4399      38 -38.4346      39 -92.3331

 E-fermi :   0.9463     XC(G=0):  -6.3299     alpha+bet : -6.6087

 val. band max:        0.9400736357   @ k =  -0.2500   0.2500   0.0000
 cond. band min:       0.9500432493   @ k =   0.2500   0.2500   0.0000
 fundamental gap:      0.0099696136
 Fermi energy:         0.9463093310

 k-point     1 :       0.2500    0.2500    0.0000
  band No.  band energies     occupation
      1     -14.3015      2.00000
      2      -6.4319      2.00000
      3      -5.3042      2.00000
      4      -4.9983      2.00000
      5      -4.0549      2.00000
      6      -4.0506      2.00000
      7      -3.8066      2.00000
      8      -3.6557      2.00000
      9      -3.6006      2.00000
     10      -3.5890      2.00000
     11      -3.5863      2.00000
     12      -3.5708      2.00000
     13      -3.5671      2.00000
     14      -3.5016      2.00000
     15      -3.4709      2.00000
     16      -3.4404      2.00000
     17      -3.4148      2.00000
     18      -3.4035      2.00000
     19      -3.3900      2.00000
     20      -3.3433      2.00000
     21      -3.2710      2.00000
     22      -3.1820      2.00000
     23      -3.1772      2.00000
     24      -3.1747      2.00000
     25      -3.1528      2.00000
     26      -3.0366      2.00000
     27      -3.0314      2.00000
     28      -3.0264      2.00000
     29      -2.9886      2.00000
     30      -2.9866      2.00000
     31      -2.9593      2.00000
     32      -2.9521      2.00000
     33      -2.8530      2.00000
     34      -2.8500      2.00000
     35      -2.8474      2.00000
     36      -2.7849      2.00000
     37      -2.7088      2.00000
     38      -2.6991      2.00000
     39      -2.6876      2.00000
     40      -2.6835      2.00000
     41      -2.6642      2.00000
     42      -2.6635      2.00000
     43      -2.6485      2.00000
     44      -2.6406      2.00000
     45      -2.6258      2.00000
     46      -2.4967      2.00000
     47      -2.4205      2.00000
     48      -2.4080      2.00000
     49      -2.3879      2.00000
     50      -2.3608      2.00000
     51      -2.3366      2.00000
     52      -2.2693      2.00000
     53      -2.2594      2.00000
     54      -2.2393      2.00000
     55      -2.2189      2.00000
     56      -2.2018      2.00000
     57      -2.1982      2.00000
     58      -2.1601      2.00000
     59      -2.0827      2.00000
     60      -2.0583      2.00000
[...]
    206       3.6850      0.00000
    207       3.7652      0.00000
    208       3.8812      0.00000
    209       4.0621      0.00000
    210       4.1984      0.00000
    211       4.4381      0.00000
    212       4.4696      0.00000
    213       5.0331      0.00000
    214       5.0461      0.00000
    215       5.4257      0.00000
    216       5.4481      0.00000
    217       5.4707      0.00000
    218       5.7803      0.00000
    219       5.8996      0.00000
    220       6.1901      0.00000

 k-point     2 :      -0.2500    0.2500    0.0000
  band No.  band energies     occupation
      1     -14.3015      2.00000
      2      -6.4319      2.00000
      3      -5.3033      2.00000
      4      -4.9991      2.00000
      5      -4.0558      2.00000
      6      -4.0491      2.00000
      7      -3.8063      2.00000
      8      -3.6551      2.00000
      9      -3.5989      2.00000
     10      -3.5966      2.00000
     11      -3.5800      2.00000
     12      -3.5709      2.00000
     13      -3.5681      2.00000
     14      -3.5014      2.00000
     15      -3.4708      2.00000
     16      -3.4426      2.00000
     17      -3.4148      2.00000
     18      -3.4013      2.00000
     19      -3.3909      2.00000
     20      -3.3450      2.00000
     21      -3.2668      2.00000
     22      -3.1822      2.00000
     23      -3.1798      2.00000
     24      -3.1771      2.00000
     25      -3.1558      2.00000
     26      -3.0373      2.00000
     27      -3.0307      2.00000
     28      -3.0244      2.00000
     29      -2.9898      2.00000
     30      -2.9825      2.00000
     31      -2.9599      2.00000
     32      -2.9530      2.00000
     33      -2.8538      2.00000
     34      -2.8506      2.00000
     35      -2.8453      2.00000
     36      -2.7860      2.00000
     37      -2.7084      2.00000
     38      -2.6991      2.00000
     39      -2.6866      2.00000
     40      -2.6839      2.00000
     41      -2.6645      2.00000
     42      -2.6572      2.00000
     43      -2.6535      2.00000
     44      -2.6403      2.00000
     45      -2.6243      2.00000
     46      -2.4968      2.00000
     47      -2.4240      2.00000
     48      -2.4058      2.00000
     49      -2.3870      2.00000
     50      -2.3720      2.00000
     51      -2.3263      2.00000
     52      -2.2682      2.00000
     53      -2.2569      2.00000
     54      -2.2375      2.00000
     55      -2.2188      2.00000
     56      -2.2061      2.00000
     57      -2.1971      2.00000
     58      -2.1602      2.00000
     59      -2.0816      2.00000
     60      -2.0591      2.00000
[...]
    206       3.7050      0.00000
    207       3.7557      0.00000
    208       3.8553      0.00000
    209       4.0710      0.00000
    210       4.1934      0.00000
    211       4.4084      0.00000
    212       4.5010      0.00000
    213       5.0283      0.00000
    214       5.0426      0.00000
    215       5.4208      0.00000
    216       5.4620      0.00000
    217       5.5191      0.00000
    218       5.7378      0.00000
    219       5.8221      0.00000
    220       6.2486      0.00000

 soft charge-density along one line, spin component           1
         0         1         2         3         4         5         6         7         8         9
 total charge-density along one line

------------------------ aborting loop because EDIFF is reached ----------------------------------------

  FORCE on cell =-STRESS in cart. coord.  units (eV):
  Direction    XX          YY          ZZ          XY          YZ          ZX
  Alpha Z   628.75265   628.75265   628.75265
  Ewald   94795.04602 94797.12721************    -6.86134    22.69540    18.10888
  Hartree102781.10927102782.09318-99551.99650    -2.08652     7.80625     5.48273
  E(xc)   -1907.75650 -1907.75358 -1915.97661    -0.04089     0.10548     0.08267
  Local  ************************207672.73714     5.61283   -26.89948   -19.80157
  n-local  -126.71298  -126.66345  -130.29274     0.15978     0.64098     0.46971
  augment  2646.99419  2647.00995  2675.96992    -0.17309    -0.49967    -0.18612
  Kinetic  4985.95070  4985.75387  5060.78983     3.38835    -3.62642    -3.93976
  Fock        0.00000     0.00000     0.00000     0.00000     0.00000     0.00000
  Total     -21.22463   -21.19722    -3.80405    -0.00089     0.22254     0.21654
  in kB     -24.44975   -24.41818    -4.38208    -0.00102     0.25635     0.24944

 VOLUME and BASIS-vectors are now :
  energy-cutoff  :      400.00
  volume of cell :     1390.84
      direct lattice vectors                 reciprocal lattice vectors
     8.358002154  0.000000000  0.000000000     0.119645817  0.000000000  0.000000000
     0.000000000  8.358002154  0.000000000     0.000000000  0.119645817  0.000000000
     0.000000000  0.000000000 19.910000000     0.000000000  0.000000000  0.050226017

  length of vectors
     8.358002154  8.358002154 19.910000000     0.119645817  0.119645817  0.050226017

 FORCES acting on ions
    electron-ion (+dipol)            ewald-force                    non-local-force                 convergence-correction
   -.308E-01 -.244E-01 0.209E+04   0.363E-01 0.411E-01 -.209E+04   0.540E-02 0.521E-02 -.302E+01   0.945E-03 -.967E-02 -.195E+00
   0.162E+00 -.265E-01 0.209E+04   -.171E+00 0.416E-01 -.209E+04   -.855E-02 0.692E-02 -.302E+01   0.906E-02 -.112E-01 -.193E+00
   -.136E+00 -.307E-01 0.209E+04   0.144E+00 0.129E+00 -.209E+04   0.214E-02 -.825E-01 -.307E+01   -.100E-01 -.760E-02 -.196E+00
   -.531E-01 0.211E+00 0.209E+04   0.524E-01 -.197E+00 -.209E+04   0.749E-02 -.940E-02 -.302E+01   0.195E-02 -.120E-01 -.202E+00
   0.150E+00 0.178E+00 0.209E+04   -.163E+00 -.173E+00 -.209E+04   -.720E-02 -.737E-02 -.301E+01   0.154E-01 -.313E-02 -.195E+00
   -.102E+00 0.198E+00 0.209E+04   0.122E+00 -.266E+00 -.209E+04   -.393E-02 0.742E-01 -.306E+01   -.174E-01 -.781E-02 -.198E+00
   -.534E-01 -.188E+00 0.209E+04   0.136E+00 0.166E+00 -.209E+04   -.806E-01 0.436E-03 -.306E+01   0.540E-02 0.217E-01 -.211E+00
   0.154E+00 -.154E+00 0.209E+04   -.244E+00 0.143E+00 -.209E+04   0.749E-01 -.555E-02 -.306E+01   0.134E-01 0.143E-01 -.200E+00
   -.102E+00 -.174E+00 0.209E+04   0.115E+00 0.144E+00 -.209E+04   0.348E-02 0.918E-02 -.324E+01   -.189E-01 0.154E-01 -.206E+00
   -.285E+01 -.299E+01 0.745E+03   0.278E+01 0.290E+01 -.745E+03   0.936E-01 0.905E-01 -.688E-01   -.543E-02 0.231E-01 -.787E+00
   0.975E+00 -.181E+01 0.746E+03   -.982E+00 0.181E+01 -.745E+03   -.180E-01 0.480E-01 -.386E-01   0.118E-01 0.172E-01 -.787E+00
   0.236E+01 -.263E+01 0.746E+03   -.228E+01 0.255E+01 -.745E+03   -.103E+00 0.814E-01 -.716E-01   -.650E-02 0.944E-02 -.795E+00
   -.178E+01 0.117E+01 0.746E+03   0.181E+01 -.115E+01 -.745E+03   0.492E-01 -.175E-01 -.392E-01   -.764E-02 -.160E-01 -.764E+00
   0.100E+01 0.101E+01 0.748E+03   -.101E+01 -.996E+00 -.748E+03   -.227E-01 -.207E-01 -.261E+00   0.924E-02 -.146E-01 -.760E+00
   0.146E+01 0.979E+00 0.746E+03   -.147E+01 -.975E+00 -.746E+03   -.676E-01 -.153E-01 -.501E-01   -.165E-02 -.475E-02 -.771E+00
   -.248E+01 0.231E+01 0.746E+03   0.244E+01 -.222E+01 -.746E+03   0.804E-01 -.103E+00 -.708E-01   -.154E-01 -.725E-02 -.771E+00
   0.776E+00 0.151E+01 0.747E+03   -.799E+00 -.152E+01 -.746E+03   -.158E-01 -.676E-01 -.538E-01   0.231E-01 -.259E-02 -.770E+00
   0.227E+01 0.221E+01 0.747E+03   -.219E+01 -.213E+01 -.746E+03   -.958E-01 -.992E-01 -.797E-01   -.774E-02 -.478E-02 -.778E+00
   0.411E+01 0.398E+01 -.659E+03   -.395E+01 -.384E+01 0.660E+03   -.174E+00 -.168E+00 -.442E-01   0.750E-02 0.222E-01 -.816E+00
   -.318E+01 0.346E+01 -.654E+03   0.302E+01 -.334E+01 0.655E+03   0.182E+00 -.148E+00 -.986E-02   -.655E-02 0.222E-01 -.822E+00
   -.967E+00 0.341E+01 -.647E+03   0.970E+00 -.340E+01 0.647E+03   0.288E-02 -.734E-02 -.465E-01   -.140E-02 0.168E-01 -.832E+00
   0.287E+01 -.240E+01 -.654E+03   -.276E+01 0.228E+01 0.654E+03   -.120E+00 0.154E+00 0.198E-01   0.107E-01 -.267E-01 -.800E+00
   -.238E+01 -.236E+01 -.651E+03   0.227E+01 0.226E+01 0.651E+03   0.123E+00 0.129E+00 0.760E-01   0.697E-03 -.162E-01 -.809E+00
   -.681E+00 -.256E+01 -.645E+03   0.690E+00 0.255E+01 0.646E+03   0.733E-02 0.114E-01 -.513E-01   -.118E-01 -.136E-01 -.820E+00
   0.334E+01 -.130E+01 -.646E+03   -.332E+01 0.130E+01 0.647E+03   -.874E-02 0.263E-02 -.467E-01   0.511E-02 0.440E-02 -.817E+00
   -.286E+01 -.989E+00 -.645E+03   0.283E+01 0.992E+00 0.646E+03   0.111E-01 0.697E-02 -.474E-01   0.694E-02 -.603E-02 -.829E+00
   -.567E+00 -.911E+00 -.651E+03   0.583E+00 0.920E+00 0.652E+03   -.247E-02 -.362E-02 0.579E-01   -.122E-01 -.339E-02 -.823E+00
   0.983E+01 0.941E+01 -.203E+04   -.995E+01 -.953E+01 0.202E+04   0.115E+00 0.116E+00 0.304E+01   0.433E-02 0.130E-01 -.258E+00
   0.207E+01 0.274E+02 -.200E+04   -.203E+01 -.278E+02 0.199E+04   -.328E-01 0.368E+00 0.301E+01   -.530E-03 0.214E-01 -.262E+00
   -.124E+02 0.113E+02 -.202E+04   0.125E+02 -.114E+02 0.202E+04   -.626E-01 0.792E-01 0.297E+01   -.376E-02 0.798E-02 -.258E+00
   0.292E+02 0.329E+01 -.199E+04   -.296E+02 -.327E+01 0.199E+04   0.380E+00 -.308E-01 0.302E+01   0.149E-01 0.458E-02 -.273E+00
   0.482E+01 0.107E+02 -.192E+04   -.478E+01 -.107E+02 0.192E+04   -.533E-01 -.822E-01 -.327E+00   0.862E-03 0.840E-02 -.210E+00
   -.337E+02 0.256E+01 -.198E+04   0.341E+02 -.260E+01 0.198E+04   -.375E+00 0.251E-01 0.294E+01   -.162E-01 0.108E-01 -.277E+00
   0.128E+02 -.133E+02 -.202E+04   -.129E+02 0.134E+02 0.202E+04   0.755E-01 -.612E-01 0.296E+01   0.127E-02 -.175E-01 -.258E+00
   0.118E+01 -.350E+02 -.198E+04   -.121E+01 0.355E+02 0.198E+04   0.240E-01 -.413E+00 0.293E+01   0.561E-02 -.306E-01 -.266E+00
   -.144E+02 -.144E+02 -.202E+04   0.145E+02 0.144E+02 0.202E+04   -.699E-01 -.691E-01 0.297E+01   -.687E-02 -.187E-01 -.264E+00
   -.443E+02 0.301E+01 -.211E+03   0.486E+02 -.309E+01 0.211E+03   -.431E+01 0.908E-01 -.769E+00   0.281E-02 -.214E-03 0.334E-01
   0.422E+01 -.445E+02 -.211E+03   -.441E+01 0.489E+02 0.212E+03   0.188E+00 -.434E+01 -.533E+00   -.465E-03 0.262E-02 0.328E-01
   0.394E+02 0.380E+02 -.129E+04   -.435E+02 -.419E+02 0.130E+04   0.408E+01 0.394E+01 -.342E+01   -.337E-02 -.167E-02 0.189E+00
   0.128E+00 0.508E+00 0.279E+02   0.355E-13 0.142E-12 0.568E-11   -.123E+00 -.507E+00 -.959E+01   -.276E-02 -.417E-03 -.182E+02

 POSITION                                       TOTAL-FORCE (eV/Angst)
      1.39300      1.39300      0.00000         0.011880      0.012267      0.124706
      4.17900      1.39300      0.00000        -0.008786      0.010856      0.123577
      6.96500      1.39300      0.00000         0.000436      0.008267      0.108761
      1.39300      4.17900      0.00000         0.008755     -0.007176      0.122563
      4.17900      4.17900      0.00000        -0.005558     -0.005485      0.123815
      6.96500      4.17900      0.00000        -0.000652     -0.001891      0.102271
      1.39300      6.96500      0.00000         0.007813     -0.000417      0.107747
      4.17900      6.96500      0.00000        -0.002000     -0.001426      0.104031
      6.96500      6.96500      0.00000        -0.002486     -0.005817      0.040291
      0.00000      0.00000      1.97000         0.022315      0.023435     -0.137564
      2.78600      0.00000      1.97000        -0.013597      0.064066     -0.050042
      5.57200      0.00000      1.97000        -0.023086      0.018194     -0.145245
      0.00000      2.78600      1.97000         0.065699     -0.013792     -0.050666
      2.78600      2.78600      1.97000        -0.018766     -0.017461     -0.209950
      5.57200      2.78600      1.97000        -0.082017     -0.015422     -0.060145
      0.00000      5.57200      1.97000         0.016412     -0.021840     -0.144717
      2.78600      5.57200      1.97000        -0.015043     -0.084341     -0.060854
      5.57200      5.57200      1.97000        -0.024511     -0.023650     -0.142167
      1.40346      1.40220      3.93890        -0.006098     -0.005609     -0.002896
      4.15964      1.39897      3.93262         0.012326     -0.003802      0.014720
      6.96154      1.38499      3.90849         0.004878      0.015522      0.001801
      1.39858      4.16020      3.93224        -0.003460      0.011187      0.007633
      4.16204      4.16088      3.92805         0.013075      0.012931      0.021245
      6.96079      4.18266      3.90775         0.004721     -0.015070      0.002408
      1.38475      6.96133      3.90847         0.015751      0.003664      0.004227
      4.18234      6.96059      3.90763        -0.014389      0.003874      0.002384
      6.96269      6.96298      3.90365         0.000626      0.001400      0.000025
      8.34471      8.34508      5.87036         0.006388      0.005017     -0.013796
      2.78325      8.32929      5.85525        -0.000315      0.005088      0.006850
      5.57370      8.34631      5.86953         0.002967      0.002915     -0.015311
      8.33383      2.78315      5.85437         0.003815      0.000327      0.005634
      2.77586      2.76662      6.03692        -0.007444     -0.006014     -0.015028
      5.57330      2.78095      5.84787        -0.000267      0.002491      0.015681
      8.34611      5.57390      5.86927         0.002882      0.002632     -0.016266
      2.78093      5.56958      5.84766         0.002722      0.002106      0.013890
      5.57261      5.57293      5.86662         0.003432      0.001852     -0.015222
      4.09492      2.82625      8.59635        -0.008923      0.005158      0.015011
      2.70573      4.19648      8.52361         0.001944      0.001247      0.022099
      2.75775      2.84799      8.34028         0.028560      0.014718     -0.011500
    total drift:                                0.001848      0.000445      0.049776

  FREE ENERGIE OF THE ION-ELECTRON SYSTEM (eV)
  free  energy   TOTEN  =      -186.82350787 eV

  energy  without entropy=     -186.72928180  energy(sigma->0) =     -186.79209918

 vacuum level on the upper side and lower side of the slab         4.726         5.548