 vasp.6.4.3 19Mar24 (build Oct  2 2024 09:01:45) complex
 executed on             LinuxGNU date 2025.02.24  13:00:46

 INCAR:
   ENCUT = 400.000000
   SIGMA = 0.100000
   EDIFF = 1.00e-04
   EDIFFG = -3.00e-02
   ALGO = Fast
   GGA = PE
   PREC = Accurate
   IBRION = -1
   ICHARG = 2
   IDIPOL = 3
   ISMEAR = 1
   ISYM = 0
   NPAR = 2
   LCHARG = .FALSE.
   LDIPOL = .TRUE.
   LWAVE = .FALSE.
   LREAL = Auto

 POTCAR:    PAW_PBE Pd 04Jan2005
 POTCAR:    PAW_PBE H 15Jun2001
 POTCAR:    PAW_PBE S 06Sep2000
 POTCAR:    PAW_PBE Pd 04Jan2005
   VRHFIN =Pd : s1 d9

   TITEL  = PAW_PBE Pd 04Jan2005
   POMASS =  106.420; ZVAL   =   10.000    mass and valenz
   ENMAX  =  250.925; ENMIN  =  188.194 eV

   TITEL  = PAW_PBE H 15Jun2001
   POMASS =    1.000; ZVAL   =    1.000    mass and valenz
   ENMAX  =  250.000; ENMIN  =  200.000 eV

   TITEL  = PAW_PBE S 06Sep2000
   POMASS =   32.066; ZVAL   =    6.000    mass and valenz
   ENMAX  =  258.689; ENMIN  =  194.016 eV

 Optimization of the real space projectors (new method)

 maximal supplied QI-value         = 14.36
 optimisation between [QCUT,QGAM] = [ 10.20, 20.39] = [ 29.12,116.47] Ry
 Optimized for a Real-space Cutoff    1.55 Angstroem

   l    n(q)    QCUT    max X(q) W(low)/X(q) W(high)/X(q)  e(spline)
   2      9    10.197    59.108    0.12E-03    0.40E-04    0.11E-06
   2      9    10.197    58.101    0.12E-03    0.39E-04    0.12E-06
   0      9    10.197   102.235    0.41E-04    0.86E-05    0.83E-07
   0      9    10.197    58.388    0.37E-04    0.79E-05    0.78E-07
   1      9    10.197    22.191    0.25E-03    0.13E-03    0.84E-07
   1      9    10.197    15.590    0.21E-03    0.11E-03    0.74E-07
 Optimization of the real space projectors (new method)

[...]

   l    n(q)    QCUT    max X(q) W(low)/X(q) W(high)/X(q)  e(spline)
   0      8     9.919    19.460    0.16E-03    0.20E-03    0.36E-06
   0      8     9.919    12.209    0.16E-03    0.20E-03    0.35E-06
   1      8     9.919     4.655    0.19E-03    0.46E-03    0.40E-06
 Optimization of the real space projectors (new method)

 maximal supplied QI-value         = 19.84
 optimisation between [QCUT,QGAM] = [ 10.12, 20.44] = [ 28.68,116.96] Ry
 Optimized for a Real-space Cutoff    1.42 Angstroem

   l    n(q)    QCUT    max X(q) W(low)/X(q) W(high)/X(q)  e(spline)
   0      9    10.119   187.594    0.52E-04    0.93E-04    0.64E-07
   0      9    10.119   164.243    0.51E-04    0.92E-04    0.63E-07
   1      8    10.119    67.533    0.16E-03    0.17E-03    0.23E-06
   1      8    10.119    50.729    0.16E-03    0.16E-03    0.23E-06
  PAW_PBE Pd 04Jan2005                  :
  PAW_PBE H 15Jun2001                   :
  PAW_PBE S 06Sep2000                   :

 POSCAR: Pd H  S
  positions in cartesian coordinates

 exchange-correlation table for PE
   RHO(1)=    0.500       N(1)  =     2000
   RHO(2)=  100.500       N(2)  =     4000

 ion  position               nearest neighbor table
   1  0.167  0.167  0.000-   3 2.79   7 2.79   4 2.79   2 2.79  10 2.79  11 2.79  13 2.79  14 2.79

   2  0.500  0.167  0.000-   8 2.79   3 2.79   5 2.79   1 2.79  11 2.79  12 2.79  14 2.79  15 2.79

[...]

  10  0.000  0.000  0.099-  11 2.79  12 2.79  13 2.79  16 2.79   1 2.79   3 2.79   7 2.79   9 2.79
                            19 2.80  21 2.81  27 2.82  25 2.83
  11  0.333  0.000  0.099-  12 2.79  10 2.79  14 2.79  17 2.79   2 2.79   8 2.79   7 2.79   1 2.79
                            25 2.79  20 2.80  19 2.81  26 2.85
  12  0.667  0.000  0.099-  11 2.79  10 2.79  15 2.79  18 2.79   2 2.79   8 2.79   3 2.79   9 2.79
                            21 2.80  20 2.81  27 2.84  26 2.85
  13  0.000  0.333  0.099-  24 2.78  16 2.79  15 2.79  10 2.79  14 2.79   6 2.79   4 2.79   3 2.79
                             1 2.79  19 2.80  21 2.81  22 2.82
  14  0.333  0.333  0.099-  22 2.76  17 2.79  15 2.79  13 2.79  11 2.79   5 2.79   2 2.79   4 2.79
                             1 2.79  20 2.79  19 2.80  23 2.84
  15  0.667  0.333  0.099-  14 2.79  18 2.79  12 2.79  13 2.79   5 2.79   2 2.79   6 2.79   3 2.79
                            20 2.81  21 2.81  24 2.81  23 2.82
  16  0.000  0.667  0.099-  24 2.78  13 2.79  17 2.79  18 2.79  10 2.79   6 2.79   4 2.79   9 2.79
                             7 2.79  27 2.79  22 2.82  25 2.82
  17  0.333  0.667  0.099-  22 2.76  25 2.78  14 2.79  18 2.79  16 2.79  11 2.79   5 2.79   4 2.79
                             8 2.79   7 2.79  23 2.82  26 2.83
  18  0.667  0.667  0.099-  15 2.79  17 2.79  16 2.79  12 2.79   5 2.79   6 2.79   8 2.79   9 2.79
                            23 2.80  27 2.81  24 2.82  26 2.82
  19  0.166  0.167  0.199-  20 2.77  29 2.78  31 2.78  22 2.79  21 2.79  25 2.80  13 2.80  10 2.80
                            14 2.80  11 2.81  28 2.81  32 2.89
  20  0.498  0.168  0.199-  19 2.77  29 2.79  14 2.79  21 2.80  23 2.80  11 2.80  30 2.80  15 2.81
                            33 2.81  12 2.81  26 2.82  32 2.83
  21  0.833  0.166  0.199-  33 2.76  28 2.78  24 2.79  19 2.79  30 2.79  20 2.80  12 2.80  10 2.81
                            15 2.81  27 2.81  13 2.81  31 2.82
  22  0.174  0.500  0.198-  23 2.74  14 2.76  17 2.76  25 2.78  19 2.79  34 2.80  24 2.81  13 2.82
                            16 2.82  31 2.86  32 2.90  35 3.06
  23  0.502  0.503  0.200-  26 2.74  22 2.74  20 2.80  18 2.80  24 2.80  33 2.81  17 2.82  15 2.82
                            36 2.82  14 2.84  32 2.86  35 2.93
  24  0.837  0.499  0.199-  27 2.76  13 2.78  16 2.78  21 2.79  23 2.80  33 2.81  15 2.81  22 2.81
                            36 2.81  18 2.82  31 2.84  34 2.86
  25  0.172  0.832  0.199-  26 2.75  34 2.77  29 2.78  22 2.78  17 2.78  11 2.79  19 2.80  28 2.80
                            27 2.81  16 2.82  10 2.83  35 3.02
  26  0.500  0.830  0.202-  23 2.74  25 2.75  30 2.75  29 2.79  27 2.80  20 2.82  18 2.82  17 2.83
                            36 2.85  12 2.85  11 2.85  35 2.87
  27  0.835  0.830  0.200-  28 2.74  24 2.76  16 2.79  30 2.80  26 2.80  36 2.81  18 2.81  21 2.81
                            25 2.81  10 2.82  12 2.84  34 2.84
  28  0.997  0.996  0.297-  27 2.74  34 2.76  30 2.77  21 2.78  31 2.78  29 2.80  25 2.80  19 2.81

[...]

  30  0.665  0.999  0.298-  26 2.75  28 2.77  33 2.78  21 2.79  29 2.79  27 2.80  20 2.80  36 2.82

  31  0.005  0.329  0.300-  39 2.33  19 2.78  28 2.78  33 2.79  32 2.80  21 2.82  34 2.82  24 2.84
                            22 2.86
  32  0.339  0.330  0.304-  37 1.79  39 2.30  29 2.74  33 2.77  31 2.80  20 2.83  35 2.85  23 2.86
                            19 2.89  22 2.90
  33  0.671  0.331  0.299-  37 1.67  21 2.76  36 2.77  32 2.77  30 2.78  31 2.79  20 2.81  24 2.81
                            23 2.81
  34  0.013  0.667  0.300-  39 2.30  28 2.76  25 2.77  22 2.80  35 2.82  36 2.82  31 2.82  27 2.84
                            24 2.86
  35  0.349  0.670  0.312-  38 1.80  39 2.31  36 2.73  29 2.79  34 2.82  32 2.85  26 2.87  23 2.93
                            25 3.02  22 3.06
  36  0.675  0.662  0.302-  38 1.70  35 2.73  33 2.77  27 2.81  24 2.81  30 2.82  34 2.82  23 2.82
                            26 2.85
  37  0.518  0.254  0.342-  33 1.67  32 1.79
  38  0.528  0.616  0.357-  36 1.70  35 1.80
  39  0.170  0.497  0.363-  34 2.30  32 2.30  35 2.31  31 2.33

IMPORTANT INFORMATION: All symmetrisations will be switched off!
NOSYMM: (Re-)initialisation of all symmetry stuff for point group C_1.

                                     Primitive cell

  volume of cell :    1390.8369

  direct lattice vectors                    reciprocal lattice vectors
     8.358002154  0.000000000  0.000000000     0.119645817  0.000000000  0.000000000
     0.000000000  8.358002154  0.000000000     0.000000000  0.119645817  0.000000000
     0.000000000  0.000000000 19.910000000     0.000000000  0.000000000  0.050226017

  length of vectors
     8.358002154  8.358002154 19.910000000     0.119645817  0.119645817  0.050226017

  position of ions in fractional coordinates (direct lattice)
     0.166666667  0.166666667  0.000000000
     0.500000000  0.166666667  0.000000000
     0.833333333  0.166666667  0.000000000
     0.166666667  0.500000000  0.000000000
     0.500000000  0.500000000  0.000000000
     0.833333333  0.500000000  0.000000000
     0.166666667  0.833333333  0.000000000
     0.500000000  0.833333333  0.000000000
     0.833333333  0.833333333  0.000000000
     0.000000000  0.000000000  0.098945254
     0.333333333  0.000000000  0.098945254
     0.666666667  0.000000000  0.098945254
     0.000000000  0.333333333  0.098945254
     0.333333333  0.333333333  0.098945254
     0.666666667  0.333333333  0.098945254
     0.000000000  0.666666667  0.098945254
     0.333333333  0.666666667  0.098945254
     0.666666667  0.666666667  0.098945254
     0.166437901  0.166733903  0.199187358
     0.498164541  0.167799383  0.199031445
     0.832835508  0.165939238  0.199327213
     0.173805880  0.499900194  0.198213714
     0.501819135  0.502683675  0.200293962
     0.837280120  0.499313610  0.198623655
     0.171748926  0.832303219  0.199237212
     0.500451155  0.830323453  0.201605699
     0.835104870  0.829880636  0.199882312
     0.996820738  0.996015553  0.297485460
     0.331617819  0.002279809  0.298615569
     0.665458868  0.998675452  0.298059053
     0.004732858  0.329044207  0.300309257
     0.339406197  0.330136741  0.304267444
     0.670783610  0.330901482  0.298636348
     0.013251257  0.666798225  0.300040181
     0.349367539  0.670068680  0.312409509
     0.675468425  0.662139726  0.301930760
     0.518437943  0.253734613  0.341860796
     0.527607717  0.615569189  0.357223550
     0.170233244  0.497062180  0.362764123

  ion indices of the primitive-cell ions
   primitive index   ion index
                 1           1
                 2           2
                 3           3
                 4           4
                 5           5
                 6           6
                 7           7
                 8           8
                 9           9
                10          10
                11          11
                12          12
                13          13
                14          14
                15          15
                16          16
                17          17
                18          18
                19          19
                20          20
                21          21
                22          22
                23          23
                24          24
                25          25
                26          26
                27          27
                28          28
                29          29
                30          30
                31          31
                32          32
                33          33
                34          34
                35          35
                36          36
                37          37
                38          38
                39          39

 KPOINTS: KPOINTS created by Atomic Simulation Env

Automatic generation of k-mesh.
 Grid dimensions read from file:
 generate k-points for:    2    2    1

 Generating k-lattice:

  Cartesian coordinates                     Fractional coordinates (reciprocal lattice)
[...]
      21 -79.5174      22 -79.4035      23 -79.4729      24 -79.4902      25 -79.5223
      26 -79.4806      27 -79.5065      28 -79.0175      29 -79.0199      30 -79.0267
      31 -79.5610      32 -79.8410      33 -79.3800      34 -79.6396      35 -79.7406
      36 -79.2956      37 -36.1663      38 -35.9538      39 -92.0786

 E-fermi :   0.6344     XC(G=0):  -6.3335     alpha+bet : -6.5607

 val. band max:        0.6334067373   @ k =  -0.2500   0.2500   0.0000
 cond. band min:       0.6434000780   @ k =   0.2500   0.2500   0.0000
 fundamental gap:      0.0099933406
 Fermi energy:         0.6344322641

 k-point     1 :       0.2500    0.2500    0.0000
  band No.  band energies     occupation
      1     -13.1233      2.00000
      2      -5.5950      2.00000
      3      -5.2538      2.00000
      4      -5.0177      2.00000
      5      -4.9114      2.00000
      6      -4.7310      2.00000
      7      -4.4303      2.00000
      8      -4.2259      2.00000
      9      -4.1785      2.00000
     10      -3.9683      2.00000
     11      -3.8167      2.00000
     12      -3.8027      2.00000
     13      -3.7947      2.00000
     14      -3.7569      2.00000
     15      -3.7455      2.00000
     16      -3.7423      2.00000
     17      -3.6994      2.00000
     18      -3.6163      2.00000
     19      -3.6062      2.00000
     20      -3.5758      2.00000
     21      -3.5595      2.00000
     22      -3.5535      2.00000
     23      -3.5146      2.00000
     24      -3.4041      2.00000
     25      -3.3853      2.00000
     26      -3.3807      2.00000
     27      -3.3398      2.00000
     28      -3.2902      2.00000
     29      -3.2697      2.00000
     30      -3.2380      2.00000
     31      -3.2306      2.00000
     32      -3.2169      2.00000
     33      -3.1959      2.00000
     34      -3.1805      2.00000
     35      -3.1423      2.00000
     36      -3.1150      2.00000
     37      -3.0714      2.00000
     38      -3.0129      2.00000
     39      -2.9786      2.00000
     40      -2.9692      2.00000
     41      -2.9395      2.00000
     42      -2.9155      2.00000
     43      -2.8931      2.00000
     44      -2.8734      2.00000
     45      -2.8602      2.00000
     46      -2.8200      2.00000
     47      -2.7665      2.00000
     48      -2.6934      2.00000
     49      -2.6897      2.00000
     50      -2.6572      2.00000
     51      -2.6391      2.00000
     52      -2.6148      2.00000
     53      -2.5867      2.00000
     54      -2.5633      2.00000
     55      -2.5184      2.00000
     56      -2.5085      2.00000
     57      -2.4968      2.00000
     58      -2.4504      2.00000
     59      -2.4147      2.00000
     60      -2.4093      2.00000
[...]
    206       3.4309      0.00000
    207       3.5847      0.00000
    208       3.7908      0.00000
    209       4.0119      0.00000
    210       4.1049      0.00000
    211       4.3496      0.00000
    212       4.4932      0.00000
    213       4.7146      0.00000
    214       4.8890      0.00000
    215       5.1508      0.00000
    216       5.3702      0.00000
    217       5.6120      0.00000
    218       5.7795      0.00000
    219       5.8306      0.00000
    220       5.9230      0.00000

 k-point     2 :      -0.2500    0.2500    0.0000
  band No.  band energies     occupation
      1     -13.1233      2.00000
      2      -5.6056      2.00000
      3      -5.2164      2.00000
      4      -5.0527      2.00000
      5      -4.9034      2.00000
      6      -4.7304      2.00000
      7      -4.4118      2.00000
      8      -4.2316      2.00000
      9      -4.1998      2.00000
     10      -3.9691      2.00000
     11      -3.8163      2.00000
     12      -3.8048      2.00000
     13      -3.8034      2.00000
     14      -3.7676      2.00000
     15      -3.7439      2.00000
     16      -3.7311      2.00000
     17      -3.6956      2.00000
     18      -3.6160      2.00000
     19      -3.6032      2.00000
     20      -3.5767      2.00000
     21      -3.5574      2.00000
     22      -3.5431      2.00000
     23      -3.5189      2.00000
     24      -3.3864      2.00000
     25      -3.3783      2.00000
     26      -3.3696      2.00000
     27      -3.3627      2.00000
     28      -3.3060      2.00000
     29      -3.2643      2.00000
     30      -3.2397      2.00000
     31      -3.2323      2.00000
     32      -3.2253      2.00000
     33      -3.1903      2.00000
     34      -3.1759      2.00000
     35      -3.1456      2.00000
     36      -3.1142      2.00000
     37      -3.0880      2.00000
     38      -3.0166      2.00000
     39      -2.9774      2.00000
     40      -2.9678      2.00000
     41      -2.9220      2.00000
     42      -2.9019      2.00000
     43      -2.8924      2.00000
     44      -2.8667      2.00000
     45      -2.8568      2.00000
     46      -2.8096      2.00000
     47      -2.7916      2.00000
     48      -2.6959      2.00000
     49      -2.6762      2.00000
     50      -2.6609      2.00000
     51      -2.6306      2.00000
     52      -2.6146      2.00000
     53      -2.5885      2.00000
     54      -2.5638      2.00000
     55      -2.5331      2.00000
     56      -2.5035      2.00000
     57      -2.4781      2.00000
     58      -2.4648      2.00000
     59      -2.4202      2.00000
     60      -2.4056      2.00000
[...]
    206       3.4278      0.00000
    207       3.5539      0.00000
    208       3.7810      0.00000
    209       3.9627      0.00000
    210       4.1312      0.00000
    211       4.3638      0.00000
    212       4.5003      0.00000
    213       4.6950      0.00000
    214       5.0047      0.00000
    215       5.1301      0.00000
    216       5.2599      0.00000
    217       5.6238      0.00000
    218       5.7535      0.00000
    219       5.8081      0.00000
    220       5.9364      0.00000

 soft charge-density along one line, spin component           1
         0         1         2         3         4         5         6         7         8         9
 total charge-density along one line

------------------------ aborting loop because EDIFF is reached ----------------------------------------

  FORCE on cell =-STRESS in cart. coord.  units (eV):
  Direction    XX          YY          ZZ          XY          YZ          ZX
  Alpha Z   628.75265   628.75265   628.75265
  Ewald   94764.08320 94646.57310************     6.59876    -2.32452   -40.31662
  Hartree102585.48717102531.37616-99392.69290     3.11751     4.84011   -16.38169
  E(xc)   -1906.53563 -1907.23831 -1916.68988     0.01417    -0.11985    -0.17251
  Local  ************************207525.94090    -9.07022    -5.32072    52.61401
  n-local  -123.55680  -127.03169  -136.49061     0.49408    -1.44617    -3.18682
  augment  2640.64422  2645.20740  2684.47192    -0.39417     1.37942     2.53249
  Kinetic  4971.38127  4983.85834  5068.26422    -0.42450     3.52216     3.39116
  Fock        0.00000     0.00000     0.00000     0.00000     0.00000     0.00000
  Total     -24.26604   -24.63758    -7.88851     0.33563     0.53043    -1.51998
  in kB     -27.95331   -28.38131    -9.08718     0.38663     0.61103    -1.75095

 VOLUME and BASIS-vectors are now :
  energy-cutoff  :      400.00
  volume of cell :     1390.84
      direct lattice vectors                 reciprocal lattice vectors
     8.358002154  0.000000000  0.000000000     0.119645817  0.000000000  0.000000000
     0.000000000  8.358002154  0.000000000     0.000000000  0.119645817  0.000000000
     0.000000000  0.000000000 19.910000000     0.000000000  0.000000000  0.050226017

  length of vectors
     8.358002154  8.358002154 19.910000000     0.119645817  0.119645817  0.050226017

 FORCES acting on ions
    electron-ion (+dipol)            ewald-force                    non-local-force                 convergence-correction
   0.210E+00 0.132E+01 0.209E+04   -.143E+00 -.111E+01 -.208E+04   0.105E-02 -.110E+00 -.314E+01   -.672E-01 -.112E+00 -.620E-01
   -.798E+00 0.120E+01 0.209E+04   0.843E+00 -.115E+01 -.208E+04   -.511E-01 0.360E-01 -.313E+01   -.284E-01 -.804E-01 -.170E+00
   0.575E+00 0.122E+01 0.209E+04   -.699E+00 -.112E+01 -.208E+04   0.478E-01 0.589E-01 -.322E+01   0.952E-01 -.130E+00 -.640E-01
   0.992E-01 -.596E+00 0.209E+04   -.697E-01 0.474E+00 -.208E+04   0.242E-01 -.178E-01 -.308E+01   -.428E-01 0.127E+00 -.549E-01
   -.102E+01 -.749E+00 0.209E+04   0.909E+00 0.622E+00 -.208E+04   0.131E+00 0.128E-02 -.312E+01   -.433E-02 0.143E+00 -.156E+00
   0.914E+00 -.654E+00 0.209E+04   -.904E+00 0.487E+00 -.208E+04   -.810E-01 -.757E-02 -.309E+01   0.474E-01 0.167E+00 -.346E-01
   0.131E+00 -.720E+00 0.209E+04   -.316E-01 0.647E+00 -.208E+04   0.192E-01 0.137E+00 -.315E+01   -.912E-01 -.152E-01 0.342E-01
   -.872E+00 -.431E+00 0.208E+04   0.898E+00 0.527E+00 -.208E+04   -.547E-01 -.552E-01 -.316E+01   0.126E-01 -.630E-01 -.755E-01
   0.780E+00 -.615E+00 0.208E+04   -.906E+00 0.660E+00 -.208E+04   0.486E-01 -.282E-01 -.320E+01   0.784E-01 -.372E-01 0.440E-01
   0.288E+01 0.357E+01 0.740E+03   -.292E+01 -.334E+01 -.740E+03   0.396E-01 -.109E+00 0.186E+00   -.290E-01 -.186E+00 -.461E-02
   -.500E+01 0.414E+01 0.743E+03   0.514E+01 -.396E+01 -.743E+03   0.790E-01 -.373E-01 0.116E+00   -.153E+00 -.160E+00 -.112E+00
   0.117E+01 0.564E+01 0.736E+03   -.134E+01 -.541E+01 -.736E+03   -.573E-01 -.892E-01 0.391E+00   0.183E+00 -.201E+00 -.465E-01
   0.213E+01 0.262E+01 0.746E+03   -.219E+01 -.274E+01 -.746E+03   0.114E+00 0.108E+00 0.110E+00   -.120E-01 0.213E-01 -.187E-02
   -.486E+01 0.180E+01 0.749E+03   0.500E+01 -.183E+01 -.749E+03   0.335E-01 0.161E-01 0.147E-02   -.136E+00 0.289E-01 -.139E+00
   0.772E+00 0.126E+00 0.743E+03   -.882E+00 -.264E+00 -.743E+03   -.637E-01 0.825E-01 0.974E-01   0.148E+00 0.545E-01 -.788E-01
   0.128E+01 -.506E+01 0.744E+03   -.127E+01 0.501E+01 -.744E+03   0.143E+00 -.874E-01 0.129E+00   -.536E-01 0.165E+00 -.203E-01
   -.661E+01 -.587E+01 0.747E+03   0.671E+01 0.575E+01 -.747E+03   0.982E-01 0.264E-01 -.482E-01   -.121E+00 0.131E+00 -.149E+00
   0.160E+01 -.512E+01 0.741E+03   -.171E+01 0.502E+01 -.741E+03   -.374E-01 -.263E-01 0.502E-01   0.175E+00 0.147E+00 -.100E+00
   0.436E+01 0.871E+01 -.628E+03   -.416E+01 -.867E+01 0.628E+03   0.176E-01 0.588E-01 0.763E-01   -.220E+00 -.155E+00 0.925E-01
   -.743E+01 0.920E+01 -.621E+03   0.724E+01 -.901E+01 0.621E+03   0.156E+00 -.487E-01 0.119E+00   0.484E-01 -.168E+00 0.144E+00
   0.177E+01 0.788E+01 -.635E+03   -.174E+01 -.750E+01 0.635E+03   -.103E+00 -.193E+00 -.402E+00   0.170E+00 -.177E+00 0.131E+00
   0.421E+00 -.705E+01 -.603E+03   -.183E+00 0.691E+01 0.602E+03   -.385E-01 0.273E-01 0.128E+01   -.221E+00 0.115E+00 -.703E-02
   -.515E+01 -.348E+01 -.638E+03   0.522E+01 0.344E+01 0.637E+03   -.400E-01 -.147E+00 0.678E+00   0.561E-01 0.131E+00 0.389E-01
   0.404E+01 -.250E+01 -.627E+03   -.439E+01 0.237E+01 0.627E+03   0.137E+00 -.592E-01 0.894E-01   0.160E+00 0.141E+00 0.158E-01
   0.410E+00 -.130E+01 -.635E+03   -.127E+00 0.136E+01 0.635E+03   -.831E-01 -.898E-01 0.113E+00   -.227E+00 0.425E-01 -.109E-01
   -.506E+01 -.421E+01 -.659E+03   0.489E+01 0.411E+01 0.659E+03   0.762E-01 0.641E-01 -.272E+00   0.796E-01 0.442E-01 0.507E-01
   0.537E+01 -.511E+01 -.643E+03   -.540E+01 0.475E+01 0.644E+03   -.166E+00 0.315E+00 -.513E+00   0.148E+00 0.415E-01 0.949E-02
   0.114E+02 -.177E+01 -.200E+04   -.114E+02 0.173E+01 0.199E+04   0.199E+00 0.155E+00 0.326E+01   -.654E-01 -.324E-01 0.514E-01
   0.544E+01 0.107E+02 -.199E+04   -.535E+01 -.108E+02 0.199E+04   -.253E-02 0.272E-01 0.309E+01   -.895E-01 -.425E-01 0.171E+00
   -.153E+02 0.908E+01 -.200E+04   0.154E+02 -.910E+01 0.200E+04   -.233E+00 0.507E-01 0.317E+01   0.156E+00 -.539E-01 0.116E+00
   0.849E+02 0.765E+02 -.194E+04   -.842E+02 -.759E+02 0.194E+04   -.596E+00 -.429E+00 0.146E+01   -.768E-01 -.110E+00 0.743E-01
   -.372E+02 0.711E+02 -.194E+04   0.378E+02 -.714E+02 0.194E+04   -.534E+00 0.286E+00 -.123E+00   -.713E-01 -.105E+00 0.191E+00
   -.533E+02 0.354E+01 -.197E+04   0.514E+02 -.478E+01 0.197E+04   0.193E+01 0.134E+01 0.919E+00   0.154E+00 -.860E-01 0.178E+00
   0.851E+02 -.806E+02 -.193E+04   -.843E+02 0.799E+02 0.193E+04   -.852E+00 0.523E+00 0.119E+01   -.965E-01 0.142E+00 0.113E-01
   -.348E+02 -.995E+02 -.200E+04   0.360E+02 0.984E+02 0.200E+04   -.116E+01 0.934E+00 -.352E+00   -.390E-01 0.135E+00 0.140E+00
   -.586E+02 -.309E+02 -.199E+04   0.561E+02 0.303E+02 0.199E+04   0.242E+01 0.570E+00 0.401E+00   0.145E+00 0.133E+00 0.105E+00
   -.842E+00 0.194E+02 -.255E+03   0.363E+00 -.205E+02 0.256E+03   0.330E+00 0.944E+00 -.126E+01   0.616E-02 -.142E-01 0.257E-01
   -.589E+01 0.750E+01 -.261E+03   0.569E+01 -.789E+01 0.263E+03   0.183E+00 0.647E+00 -.150E+01   0.892E-02 0.687E-02 0.253E-01
   0.247E+02 0.585E+01 -.147E+04   -.253E+02 -.604E+01 0.148E+04   0.310E+00 0.168E+00 -.801E+01   -.643E-01 0.721E-03 0.101E+00
   -.235E+01 -.503E+01 0.234E+02   0.249E-13 0.107E-12 0.682E-12   0.239E+01 0.504E+01 -.239E+02   -.376E-01 -.109E-01 0.462E+00

 POSITION                                       TOTAL-FORCE (eV/Angst)
      1.39300      1.39300      0.00000         0.000579     -0.011387      0.099019
      4.17900      1.39300      0.00000        -0.035000      0.006998      0.089173
      6.96500      1.39300      0.00000         0.018651      0.020720      0.058739
      1.39300      4.17900      0.00000         0.010975     -0.013268      0.057440
      4.17900      4.17900      0.00000         0.015496      0.017514      0.108897
      6.96500      4.17900      0.00000        -0.023460     -0.007816      0.139353
      1.39300      6.96500      0.00000         0.027161      0.048470      0.115267
      4.17900      6.96500      0.00000        -0.016378     -0.022245      0.076449
      6.96500      6.96500      0.00000         0.001228     -0.020618      0.067670
      0.00000      0.00000      1.97000        -0.031150     -0.057289      0.001010
      2.78600      0.00000      1.97000         0.070780     -0.014481      0.071413
      5.57200      0.00000      1.97000        -0.049993     -0.061174     -0.048442
      0.00000      2.78600      1.97000         0.035765      0.012065      0.024448
      2.78600      2.78600      1.97000         0.036191      0.007950      0.015095
      5.57200      2.78600      1.97000        -0.026148     -0.001317      0.083626
      0.00000      5.57200      1.97000         0.093385      0.028327      0.048452
      2.78600      5.57200      1.97000         0.076148      0.036543     -0.017645
      5.57200      5.57200      1.97000         0.029982      0.018979      0.072288
      1.39109      1.39356      3.96582         0.001106     -0.055527     -0.117309
      4.16366      1.40247      3.96272         0.014844     -0.031248     -0.007424
      6.96084      1.38692      3.96860         0.093017      0.007653     -0.027489
      1.45267      4.17817      3.94644        -0.020227     -0.004430      0.040031
      4.19421      4.20143      3.98785         0.082073     -0.050662     -0.045942
      6.99799      4.17326      3.95460        -0.051497     -0.051551      0.087312
      1.43548      6.95639      3.96681        -0.027371      0.009729      0.013418
      4.18277      6.93985      4.01397        -0.016098      0.005103     -0.038086
      6.97981      6.93614      3.97966        -0.048506      0.004672      0.060630
      8.33143      8.32470      5.92294         0.047911      0.078542      0.008611
      2.77166      0.01905      5.94544        -0.005727     -0.110983     -0.051005
      5.56191      8.34693      5.93436         0.061867     -0.019995      0.020363
      0.03956      2.75015      5.97916        -0.032218      0.079889     -0.033805
      2.83676      2.75928      6.05796         0.030457     -0.108928     -0.177865
      5.60641      2.76568      5.94585         0.205566      0.013754     -0.097099
      0.11075      5.57310      5.97380        -0.154675      0.021290     -0.068293
      2.92001      5.60044      6.22007        -0.021448     -0.004904     -0.283088
      5.64557      5.53417      6.01144         0.097597      0.087702     -0.047795
      4.33311      2.12071      6.80645        -0.142495     -0.110934      0.062962
      4.40975      5.14493      7.11232        -0.011625      0.267611     -0.319317
      1.42281      4.15445      7.22263        -0.336764     -0.014754     -0.041061
    total drift:                               -0.003208     -0.002989      0.000732

  FREE ENERGIE OF THE ION-ELECTRON SYSTEM (eV)
  free  energy   TOTEN  =      -188.64135402 eV

  energy  without entropy=     -188.52621200  energy(sigma->0) =     -188.60297335

 vacuum level on the upper side and lower side of the slab         5.332         5.227